&CONTROL
calculation = 'md'
    restart_mode='restart',
    prefix='ns',
    nstep=2000,
    pseudo_dir = '/home/elmer.barquero/carbon_nn/pseudo',
    outdir= '.',
    max_seconds=86000
    dt              = 20.67        
/
&SYSTEM
   ntyp             = 5
   nat              = 584
   ibrav            = 0
   occupations='smearing', smearing='mp', degauss=0.02,
   vdw_corr='dft-d3'

/
&ELECTRONS
!   diagonalization  = 'cg'
   mixing_mode      = 'local-TF'
   mixing_beta      = 0.2
!   mixing_ndim      = 8
   conv_thr         = 1.0D-4
   electron_maxstep = 500
/
&IONS
!  ion_dynamics   = 'beeman'          ! Algorithm to move ions
  ion_temperature= 'svr'         ! <-- Use Stochastic Velocity Rescaling
  tempw          = 300.0             ! The target temperature in Kelvin
/
&CELL
/

ATOMIC_SPECIES
Cl 35.45 Cl.pbe-n-kjpaw_psl.1.0.0.UPF
Al 26.9815385 Al.pbe-n-kjpaw_psl.1.0.0.UPF
N 14.007 N.pbe-n-kjpaw_psl.1.0.0.UPF 
C 12.011 C.pbe-n-kjpaw_psl.1.0.0.UPF 
H 1.008 H.pbe-kjpaw_psl.1.0.0.UPF 

K_POINTS gamma

CELL_PARAMETERS angstrom
25.00000000000000 0.00000000000000 0.00000000000000
0.00000000000000 25.00000000000000 0.00000000000000
0.00000000000000 0.00000000000000 16.80000000000000


ATOMIC_POSITIONS angstrom
Cl 22.4071023512 9.5925802174 2.5932887588  
Cl 21.5434792982 8.4785169053 -0.6776368270  
Cl 23.9531020727 11.2950509605 -0.0869811970  
Al 23.1885032333 9.4200672123 0.5686908654  
Cl 14.3810832775 12.3363996615 3.5970123770  
Cl 15.4144604367 14.5063719285 1.2510172728  
Cl 13.6356440882 11.9081933087 0.1759171856  
Al 13.7426407908 13.3885970952 1.6959195516  
Cl 4.5081432742 2.1148564141 6.2586490488  
Cl 3.1717881543 2.3414538688 -3.8069119217  
Cl 5.0531297687 5.1939070066 4.8211850301  
Al 4.9506426484 3.1326410717 4.3550478197  
Cl 6.6461186019 10.0288816774 0.1943040648  
Cl 7.6152592889 8.5717961853 3.3869839171  
Cl 5.1326158996 7.0261643012 1.3712239098  
Al 5.9810468153 8.9633687778 1.9971812560  
Cl 1.8010176891 -0.9817810408 -3.1006375187  
Cl 5.1163399641 -0.6409800048 -3.7370599684  
Cl 3.6689935706 0.9760684888 -0.7477763845  
Al 3.4234141796 0.4730051283 -2.9010900214  
Cl 6.7525439428 20.6647476648 9.8045563486  
Cl 9.3304725799 20.9902773521 7.0104550552  
Cl 7.3353781928 24.2936914847 9.0378409243  
Al 8.0479442021 22.3591079345 9.8856982136  
Cl 23.9276801835 15.6121242916 0.1035026493  
Cl 25.2830746197 16.6733008997 -3.0747352549  
Cl 26.1957365974 13.0915447808 1.6598983134  
Al 25.3474778974 16.9097853327 -0.9109694525  
Cl 10.1532082930 17.5709650292 0.7299455495  
Cl 8.9260130676 20.8339314437 0.1195659264  
Cl 8.5576929592 19.5745167343 3.3824673648  
Al 8.4713868237 18.8363721338 1.3458801446  
Cl 9.6517275767 23.4091572053 2.3153052136  
Cl 12.1912612985 21.2546005665 1.9641580555  
Cl 11.5113201893 22.8697537502 -0.9421425335  
Al 10.5753492065 22.0220160810 1.0196455764  
Cl 2.3451731776 15.7527707341 -0.4345076980  
Cl 2.7294352504 15.9131932615 2.9488862338  
Cl 4.6119513291 13.5330489124 0.9275534262  
Al 2.7319717975 14.5313693955 1.3995254358  
Cl 10.3583571773 9.7850412420 -5.9206512974  
Cl 12.0943314149 12.4722701797 -4.5565030524  
Cl 10.1260341571 10.2355147864 -2.4600035910  
Al 10.2059191130 11.4256732873 -4.1615425619  
Cl 13.5410898947 9.5043977318 9.0725092067  
Cl 10.9158741938 11.3483132697 7.6269803269  
Cl 10.7054105857 8.0235512697 8.0409359074  
Al 11.3961927610 9.8131575960 8.9908811354  
Cl 11.9375152767 22.7112913269 4.9536790535  
Cl 14.9017296760 22.6883145077 6.9762876445  
Cl 13.8277008481 19.9245363901 5.3759822708  
Al 13.0109039666 21.5379395289 6.5047944853  
N 7.9277342838 3.6464322654 0.4466257208  
N 7.6367864598 1.5707754048 -0.1880330689  
C 7.8199461652 5.0846023061 0.7898215289  
C 7.0323564788 2.7732351805 -0.2403168538  
C 9.0973523785 2.9970104549 0.7027294464  
C 8.9222949161 1.6925298997 0.1863226648  
C 7.9712246069 6.0979163856 -0.3215580244  
C 7.0117421798 0.3425788825 -0.7259732173  
H 6.8227903014 5.2469379816 1.1768870736  
H 8.5003182789 5.2906723225 1.6037922995  
H 6.0083529435 3.0633752343 -0.5577771704  
H 9.9115119441 3.5313037779 1.1253074654  
H 9.6122032906 0.8904534037 0.3126167255  
H 8.9756845047 5.9278958309 -0.7443750290  
H 7.9979478989 7.0876186989 0.1423820952  
H 7.2097338440 6.0499786623 -1.0933154822  
H 6.3198314001 -0.0788427380 0.0484365024  
H 6.3606305039 0.5333114498 -1.6247667034  
H 7.7047393116 -0.4294985485 -1.0243524515  
Cl 6.9187880148 2.5101595283 3.6343113459  
N 18.9230739835 7.7612232741 4.8878490623  
N 19.4510983333 6.1987637489 3.4350243726  
C 19.0853316550 9.0629224117 5.5679037172  
C 19.6464765948 7.4900118501 3.7887930976  
C 18.2521560035 6.6015796217 5.2764637899  
C 18.5556763003 5.6246604981 4.3238598896  
C 18.0318462383 10.0776026227 5.1809216345  
C 20.1969971548 5.3798276207 2.4727631045  
H 19.1538565054 8.8694842704 6.6439297985  
H 20.0892129141 9.4008506410 5.1822529377  
H 20.2932679569 8.2237271030 3.3186167745  
H 17.6098738619 6.5804688195 6.1935187314  
H 18.2898066231 4.5676911250 4.3461266773  
H 17.9330105210 10.2075337114 4.1309966284  
H 18.2594919322 11.0464905002 5.6366578107  
H 16.9947650761 9.7417251383 5.5867251295  
H 20.4233938857 5.8438744367 1.5001806110  
H 21.1767893643 5.1519259256 2.9316794782  
H 19.6220254740 4.4887634544 2.2489885996  
Cl 21.4918942333 6.6379890594 6.9103442745  
N 12.1405746286 9.0945256153 3.5740871903  
N 10.8806683417 10.1797548958 2.1158310336  
C 12.9697917217 8.0901914428 4.2797744218  
C 11.5986346003 9.0658656224 2.3539600334  
C 11.7390273071 10.3122048101 4.1567146982  
C 10.9589528060 11.0026821665 3.2535828663  
C 14.1499533220 7.6826441058 3.3762655320  
C 10.2954211546 10.4845096069 0.8204444046  
H 13.3223264314 8.7053002317 5.1280916824  
H 12.3124674236 7.2833917273 4.6658935553  
H 11.6827715347 8.1558051280 1.6894893780  
H 12.0095940450 10.4617340257 5.1806156638  
H 10.4170274307 11.9497761817 3.1845578136  
H 13.6848076671 7.1014548869 2.5014005238  
H 14.8237348207 7.0070952957 3.9023810844  
H 14.7078908400 8.5568309844 3.0766645035  
H 10.2301512979 9.5926859325 0.2458846682  
H 9.3333179839 10.8941358405 1.0104735798  
H 10.9493950363 11.1212822073 0.2310438484  
Cl 8.4223626609 12.5411543883 -4.5268580063  
N 11.0427969404 3.8461693157 4.8638129944  
N 11.9343808670 2.7578643939 3.2097200179  
C 10.3309057712 4.8545689368 5.7007393472  
C 11.6763798750 4.0017529583 3.7224789592  
C 10.7983241488 2.4545029753 5.0550695875  
C 11.4375609212 1.7832147072 4.0264435703  
C 9.2480750901 5.6548523770 5.0345363157  
C 12.7243793919 2.6837474825 1.9932199857  
H 9.9040140083 4.2572485021 6.5085324121  
H 11.1316086536 5.4380314848 6.0695215769  
H 11.9504263057 4.9294287910 3.3476887731  
H 10.1462221881 2.0386778159 5.8173815794  
H 11.6313924110 0.7254277658 3.8718835518  
H 9.6091409349 6.5802447627 4.5975851394  
H 8.4929979682 5.7645317775 5.8023848224  
H 8.7280319506 5.0790382622 4.2447253419  
H 13.7628444034 3.1516160390 2.1198811051  
H 12.8169981671 1.6325894606 1.7041664690  
H 12.2347128777 3.2260120566 1.1826890871  
Cl 13.6711041611 2.1170049489 6.6163210412  
N 0.7378797822 22.0392497607 7.8392625913  
N 0.1394185576 22.1829538098 9.8684300155  
C 1.4984165401 22.3612441587 6.5208614787  
C 0.5823264929 22.8785979196 8.8385063437  
C 0.4376129145 20.7301682640 8.2785840911  
C 0.0179523081 20.8386097998 9.5399144482  
C 2.9507998087 22.0501667200 6.6720570919  
C -0.3741052990 22.8410172488 11.0753067746  
H 1.0567695904 21.7802829358 5.6915485700  
H 1.3833482256 23.4547108119 6.4292405479  
H 0.9691888849 23.8811778841 8.8206902133  
H 0.3830797325 19.9541679977 7.5717708734  
H -0.3670612546 20.0547019124 10.2228468355  
H 3.3851538283 22.4890006174 7.5881247876  
H 3.4970923833 22.3579102766 5.7947512794  
H 3.0997136388 20.9530394008 6.8205541475  
H 0.3663339515 22.7284851441 11.8611038619  
H -0.5965140364 23.9023996812 10.7692043634  
H -1.3361846257 22.3198381962 11.3132408150  
Cl -1.6353272587 24.8817615102 8.5393066142  
N 17.6191110451 0.3840710918 4.6172281271  
N 19.6292168010 1.0917641342 4.0696267011  
C 16.4502226966 -0.6185781939 4.6863323519  
C 18.7492470539 0.0843984275 3.9559488435  
C 17.7390387552 1.6307360830 5.1809382637  
C 19.0427361248 2.0621274192 4.9204696944  
C 16.1931517653 -1.1819921828 3.3336010258  
C 20.9897421850 1.1597122738 3.5721214967  
H 16.7181606579 -1.4229831564 5.3669667633  
H 15.5681536280 -0.1148587963 5.0769205681  
H 18.9152730929 -0.8694266388 3.4548772804  
H 16.9533370636 2.1928242429 5.7103690455  
H 19.5090227750 3.0026881327 5.1100845978  
H 16.2433410402 -0.4420767505 2.4921886749  
H 15.1788989387 -1.5592028788 3.4298965629  
H 16.8711274169 -2.0023576789 3.1567528055  
H 21.0552136141 0.5135107611 2.7190555761  
H 21.2110926915 2.2029492300 3.4573010322  
H 21.6963219800 0.8030679952 4.3095738844  
Cl 22.6017579123 4.0297560462 4.5172663896  
N 15.8114104674 17.0103051874 4.1988609214  
N 15.5508524805 18.6367215681 2.7152817961  
C 15.5716285880 15.6647291772 4.8009780743  
C 15.1217330707 17.4323150634 3.0747392373  
C 16.6901243423 18.0426565175 4.5713241048  
C 16.5328696902 19.0656464338 3.6511030824  
C 16.8851603178 14.8901030620 4.8447872787  
C 15.3239015616 19.4730096522 1.5281190098  
H 15.1318823463 15.7777258168 5.7955957090  
H 14.8015386982 15.0768268175 4.2310881929  
H 14.4941980786 16.7166564185 2.5858596874  
H 17.3137671342 17.9231604557 5.4442350201  
H 16.8930605187 20.1302221168 3.7113600156  
H 17.2682640854 14.5196330664 3.8424915395  
H 16.6911941064 14.0186270797 5.5584249146  
H 17.7052384692 15.4799307602 5.3567351147  
H 14.3470366132 19.2618749715 1.1380304240  
H 15.3196589710 20.5046957695 1.8591833807  
H 16.0353496792 19.2357922770 0.7181550797  
Cl 11.8522143025 14.3919030834 1.9521798907  
N 13.2468884821 6.8577139039 -2.3833832443  
N 11.3769369385 6.3962435437 -3.4145296469  
C 14.2749580844 6.8907128057 -1.3416037683  
C 12.0475652193 6.3191372870 -2.2608852059  
C 13.3682221432 7.3383135901 -3.6569459590  
C 12.2110736643 7.0099824032 -4.3570040859  
C 14.7772394451 8.2589858188 -0.8434158399  
C 10.0114212491 6.0208159968 -3.6828804833  
H 13.8481436968 6.2929729537 -0.4668593322  
H 15.1683129758 6.3933778291 -1.8096689125  
H 11.6000528401 6.0351328158 -1.2884471602  
H 14.3229242173 7.8227231265 -3.9948932905  
H 11.9033555581 7.1533690748 -5.4246342816  
H 15.1857669752 8.8886057411 -1.6471676772  
H 15.5715379802 8.0574545596 -0.0851318805  
H 13.9212070170 8.8119210017 -0.4364520493  
H 9.8080039044 5.2974853759 -2.8868667316  
H 9.3641506683 6.8889021706 -3.5296470848  
H 10.0337702305 5.5803667273 -4.6983322167  
Cl 11.4401265014 5.7292732759 0.8394315484  
N 19.4845305233 12.4728236743 1.7389671343  
N 21.1279977698 12.4042048588 3.2209443282  
C 18.2121781352 11.8936062020 1.1525881733  
C 19.8575436228 12.0668452906 2.9645595587  
C 20.5974291614 12.9730981469 1.1222251666  
C 21.6127274267 12.9660652749 2.0553666470  
C 18.2141471102 10.3503338681 1.1282132149  
C 21.7938751054 12.1611445250 4.5168307116  
H 17.3854397804 12.3165319768 1.7230828159  
H 18.1991793599 12.2472289064 0.1532490134  
H 19.1914482686 11.7905871426 3.7523943070  
H 20.6059718376 13.3147284209 0.1026094636  
H 22.6446569241 13.2748636755 1.9633290213  
H 19.1032118201 9.9317767207 0.5913004764  
H 17.2863349866 10.1484527810 0.5602932651  
H 18.0809923327 9.9653165410 2.1680862532  
H 21.3020296618 12.7994021531 5.2515225514  
H 21.6719456370 11.0904993802 4.7475669568  
H 22.8595660752 12.5072113641 4.4484147450  
Cl 25.3257557119 18.8457804007 -0.1768565937  
N 23.2479200046 23.2579839601 3.4046391411  
N 22.3427899550 23.1683169510 5.3902622789  
C 23.2741161053 23.3668914078 1.9274269868  
C 22.2863293080 22.6929973200 4.1268735161  
C 23.9645850240 24.1712826133 4.1741654372  
C 23.3785323984 24.1127383484 5.4424191104  
C 24.5037163790 22.7445610482 1.3948522416  
C 21.8249675896 22.4256472129 6.5621146812  
H 22.3814089786 22.9653567168 1.5742034971  
H 23.3556726226 24.4123194627 1.6207905351  
H 21.5363119343 21.9615628980 3.7618584546  
H 24.7854108353 24.8457695532 3.9174972856  
H 23.5590690109 24.5575732437 6.4240371336  
H 24.2030168634 21.6562157316 1.1750048191  
H 25.2773606041 22.6742713829 2.1711255964  
H 24.9711469091 23.2887014615 0.5519937319  
H 21.9666172284 21.3893727397 6.2482119952  
H 22.3662240012 22.7456650341 7.4775727240  
H 20.7793541115 22.6600699184 6.6866199688  
Cl 19.1839014136 21.1166256355 3.4912581003  
N 4.1865137629 10.2336235456 4.1916587976  
N 3.1746322970 10.1250940998 2.2606265285  
C 5.2252647370 10.2395142772 5.2095113516  
C 4.3794998828 9.9755262179 2.8907180593  
C 2.8813827680 10.5966401128 4.4181940293  
C 2.2204756767 10.4791300353 3.2151597694  
C 6.1740831584 11.4184879802 5.1214441811  
C 3.1331945109 10.2836959158 0.7695461235  
H 4.7571044777 10.2366595971 6.1930952758  
H 5.8103663553 9.2918351648 5.2214430496  
H 9.3780860857 13.7730325630 -0.7519068878  
H 2.5470021605 10.7590174568 5.4883017001  
H 1.1159238930 10.6677263553 3.0145791006  
H 6.8135513368 11.4497457271 4.1959619624  
H 6.9354465714 11.3092283357 5.9946524069  
H 5.6811075291 12.3918955034 5.1740174349  
H 3.7765565674 11.0633726822 0.4560312341  
H 3.3920765730 9.3289895940 0.2910519955  
H 2.0951541769 10.5279724084 0.4688377278  
Cl 8.2284958782 13.5322290319 -0.2161598565  
N 26.0620302163 5.2398984771 2.9484305239  
N 26.8459237803 4.7457973294 1.0495830108  
C 25.9853915398 6.0486679630 4.1621674781  
C 27.1113605843 5.4531159588 2.1859842936  
C 25.1677272378 4.3618484649 2.3799425858  
C 25.6879269905 4.0045858950 1.1680929122  
C 27.0643376253 7.1012393206 4.3914864444  
C 27.4505080015 4.9016686800 -0.2652582410  
H 24.9582450086 6.4600202493 4.1345778916  
H 25.9360099375 5.3416594869 4.9972712817  
H 27.9478341779 5.9949692397 2.3985203089  
H 24.2380064457 4.1441024206 2.8985027063  
H 25.4085714475 3.4316656493 0.3118760170  
H 26.8484454942 7.5505976813 5.4031283222  
H 27.0588582228 7.8334523111 3.6001451579  
H 28.0952748130 6.6492818101 4.4596081897  
H 26.8403604754 5.5818315849 -0.7915780262  
H 28.4722432902 5.3330704604 -0.1285159709  
H 27.5337324371 3.9491623798 -0.7568172147  
Cl 17.7210200727 6.1411220007 -1.2691502933  
N 21.3484890622 17.5775744486 3.7540117769  
N 20.9421580005 18.3222628911 1.7895963964  
C 21.8240668289 17.5237159635 5.1102367718  
C 21.6241391921 18.5376146756 2.9128702098  
C 20.4745874090 16.6312435167 3.1209433618  
C 20.1998959347 17.1677221960 1.8778368479  
C 22.9987849479 16.5427225020 5.3524832709  
C 20.8330000308 19.3508903591 0.8182992573  
H 22.2637971879 18.5465023246 5.1925376826  
H 21.0173881241 17.4484959848 5.8219235651  
H 22.2771654449 19.4889452136 3.1348710923  
H 20.3276062428 15.6376709882 3.5387991401  
H 19.7481739569 16.7308291593 0.9900002276  
H 22.8517235747 15.6156747380 4.7939665852  
H 23.0125466767 16.1792584107 6.3959039238  
H 23.9551499080 16.9860057537 5.0158244352  
H 20.6309107477 18.9464137859 -0.1591505291  
H 20.0688326631 20.0366853389 1.1611127130  
H 21.8310268776 19.8467618107 0.8040183245  
Cl 24.1410116391 20.1861294689 4.8280124908  
N 25.2192623383 12.2856493265 12.5716456267  
N 24.8130684657 11.1233806449 10.6485717691  
C 25.2132157406 13.3835646001 13.5590759777  
C 25.3161287410 12.2960813142 11.2069889307  
C 24.6846978300 11.0707469405 12.8764845883  
C 24.4288882502 10.3500509767 11.7354264941  
C 23.8087628100 13.5060083441 14.0906156088  
C 24.8334935558 10.7927488551 9.2450820760  
H 25.8772044255 13.0389278804 14.4188583341  
H 25.5198037451 14.3444247484 13.0878630434  
H 25.6383166885 13.0663513419 10.5658919652  
H 24.6388765533 10.6881401044 13.9201093182  
H 23.9636987607 9.4243738181 11.5490938696  
H 23.1112239234 13.6512983207 13.2429035611  
H 23.6814378063 14.3157664754 14.8056859337  
H 23.4607951159 12.6486604378 14.6464549041  
H 23.9616539846 11.1653650908 8.6824170141  
H 25.7111421177 11.1439039455 8.7405213083  
H 24.7649994032 9.6924100567 9.2378484637  
Cl 24.5638650580 7.8056747157 0.6233930691  
N 9.2851117562 15.7512463059 4.8353600106  
N 7.1761110699 16.0449286793 4.4637390565  
C 10.6207606280 15.6764810787 5.5147181794  
C 8.1064198994 15.9982495031 5.4295037350  
C 9.0294044176 15.5990995007 3.4502985021  
C 7.7006379194 15.8376608751 3.2042947625  
C 11.5059551768 16.9224310022 5.2198787679  
C 5.7897259737 16.6446558781 4.6069854815  
H 10.4155125329 15.5381863751 6.5682209998  
H 11.1345611644 14.7915830120 5.0698124979  
H 7.8464186450 16.1106155449 6.5247832404  
H 9.7651361331 15.3178907918 2.7049329933  
H 6.9874315824 15.9248610102 2.3329446005  
H 11.0401263579 17.7233785679 5.8085755842  
H 11.4968885964 17.1494198725 4.1717373587  
H 12.5068103443 16.7098274021 5.5866731198  
H 4.9754449621 15.9769375249 4.3207595998  
H 5.6917948575 16.8573537291 5.6785667188  
H 5.7574805784 17.5897301488 4.0908999994  
Cl 4.3322963260 14.6258143505 6.8846071280  
N 5.4858140568 22.9035331398 2.3757642642  
N 6.1911189252 23.0890044445 4.4361514826  
C 4.9790955539 22.2502612006 1.0714582966  
C 6.0624718652 22.2489540422 3.3996378511  
C 5.2605970811 24.1922493724 2.7764408049  
C 5.6394256838 24.3073588216 4.1139235815  
C 3.6338977342 22.8275984883 0.6623252164  
C 6.6807806306 22.8106395482 5.7658181846  
H 5.6840546572 22.5191985375 0.2944223880  
H 4.9966306498 21.1115057264 1.1552635371  
H 6.5373431907 21.2118449392 3.4041047373  
H 4.8305996434 25.0010536319 2.1945369836  
H 5.6947780141 25.1645086114 4.7198122574  
H 2.8099905474 22.4974506289 1.2741860009  
H 3.4197708849 22.4281712773 -0.3479363132  
H 3.6366137170 23.9462874347 0.5850444452  
H 7.7724609324 23.0579692288 5.9101951051  
H 6.1332985655 23.3676932711 6.5291006680  
H 6.5248965132 21.7628999433 6.0721958382  
Cl 6.7180860123 18.3740050733 0.4122724274  
N -1.4896914245 3.5730155500 9.3581686937  
N -3.4304330076 2.6019806071 9.0228637121  
C -0.2631086310 4.3979849649 9.1759566049  
C -2.3584580380 3.1487444106 8.4192010299  
C -2.0783732845 3.3156149156 10.6258358670  
C -3.2521629554 2.6583233750 10.4232815517  
C -0.0364700580 4.7292465538 7.6926808057  
C -4.4702155502 1.9915616671 8.2041512244  
H -0.3265527179 5.2532351480 9.8455977819  
H 0.5119887713 3.7732748911 9.5943520655  
H -2.1871458259 3.2720097412 7.3512405264  
H -1.5472088248 3.5099725134 11.5771716287  
H -3.9554660935 2.1894866279 11.1255277658  
H -0.8134746876 5.4145608608 7.2750721135  
H 0.0353201072 3.7983906126 7.1238051395  
H 0.9932774013 5.1847629447 7.6588144515  
H -3.9115982606 1.2524885881 7.6383727627  
H -5.2735457414 1.5222693406 8.8236404752  
H -4.9633009074 2.7043342688 7.5347014531  
Cl 3.6092474651 2.3439759890 2.8199137751  
C 17.0147189591 7.5955099747 8.3190278205  
C 16.7721207103 12.0661280629 8.2123134040  
C 14.2925453400 15.4584595715 8.2207554991  
C 10.3567856672 17.4153245117 8.3325126322  
C 6.3541812003 15.9841541347 8.2031374386  
C 3.9070349028 12.2536318511 8.4864045340  
C 3.7721332066 7.9094300021 8.3814229301  
C 6.2437346474 4.2871048727 8.4175678501  
C 10.1152450138 2.5525604972 8.3011886080  
C 14.4473535048 2.3400223316 8.2434753378  
C 18.4543741815 4.1307616213 8.3060856037  
C 20.9094713830 7.8277426389 8.2426557769  
C 20.7114296211 12.1465705097 8.2953593672  
C 18.7163714615 16.0867406305 8.4394298798  
C 15.6021020216 18.8470908761 8.3224255525  
C 11.9418535209 21.0203498396 8.1648979930  
C 17.4456508497 8.8807400904 8.3591542649  
C 16.2338588154 13.1700741020 8.3813883986  
C 13.3415537379 16.2997638240 8.3798701093  
C 9.1295859328 17.2827021925 8.4821579785  
C 5.4415792401 14.9385775013 8.3028546815  
C 3.5471184160 11.0884282575 8.3286872978  
C 4.4229947671 6.8654745301 8.4267732150  
C 7.1983135319 3.5171501312 8.4163605048  
C 11.3686011153 2.3364747370 8.4263050393  
C 15.7339522861 2.7175166748 8.2023114607  
C 19.3437837037 5.0305573749 8.4385951187  
C 21.1268492635 9.1565886103 8.2100293766  
C 20.3773294125 13.3190997034 8.3889769275  
C 17.8218511026 16.9059673600 8.2922754783  
C 14.5598426987 19.5343694406 8.3374967272  
C 10.4611224117 21.3866972804 8.2373775144  
C 17.2384355998 9.9348040983 9.3799314523  
C 15.8047881519 13.8958256538 9.4801476779  
C 12.4858706655 16.6634257841 9.3876817543  
C 8.2317623790 16.9197601101 9.4858948514  
C 4.9282125625 14.3323927716 9.4666836435  
C 3.5815728662 10.2548128033 9.4594311316  
C 4.7777526497 6.0778623522 9.4998437717  
C 8.0004355070 3.2586461769 9.4859321500  
C 12.2717748713 2.2029656697 9.4827671966  
C 16.3872944912 3.0116978909 9.4382586824  
C 19.7617803299 5.8836626386 9.4870996944  
C 20.8750879115 9.8529760648 9.4319034417  
C 19.8914760770 14.0962884835 9.4608379240  
C 17.3234073819 17.5361707500 9.5027265672  
C 13.7578979214 19.8922906483 9.4469824221  
C 9.8614511760 21.8206010941 9.4149700065  
C 17.0686982724 11.2767389211 9.3675139965  
C 14.8462105738 14.9234104826 9.3852790074  
C 11.1598396123 17.1217356089 9.4406996455  
C 6.9542896575 16.3458060793 9.4182116403  
C 4.2508794330 13.1183319725 9.4458647762  
C 3.7008964178 8.8260101568 9.4718436383  
C 5.7080236648 5.0039676992 9.4992926027  
C 9.3203203724 2.6761000333 9.4783551070  
C 13.6611377130 2.3550303331 9.4640852159  
C 17.6423345937 3.7800569384 9.4674174700  
C 20.5101038623 7.1107898519 9.4473564517  
C 20.7398785871 11.2868953824 9.4164139334  
C 19.1574016182 15.2867560162 9.4612225351  
C 16.2553563388 18.4705140074 9.4628219145  
C 12.5967090104 20.6897147541 9.4266469784  
C 8.4464478416 22.6903556356 13.1864241400  
C 16.8400700066 8.0273018059 9.6774250786  
C 16.6453453453 11.9377898571 10.7111293643   0 0 0
C 14.2415203553 15.4404598271 10.6846043643   0 0 0
C 10.4073453853 17.1519998171 10.6854393643   0 0 0
C 6.4143504153 15.8864048271 10.6863193643   0 0 0
C 4.0578854353 12.3890098571 10.6850343643   0 0 0
C 4.0797504353 8.1682248871 10.6851043643   0 0 0
C 6.3441854153 4.5955599071 10.6846743643   0 0 0
C 10.0672803953 2.5772699271 10.6851643643   0 0 0
C 14.3065653553 2.5532749271 10.6859293643   0 0 0
C 18.1337853353 4.3778999071 10.6850493643   0 0 0
C 20.5600003153 7.8291448871 10.6840293643   0 0 0
C 20.5994953153 12.0458148571 10.6821943643   0 0 0
C 18.6653053253 15.8275648271 10.6844243643   0 0 0
C 15.5915953553 18.7751748071 10.6900343643   0 0 0
C 11.8840853753 20.9544347871 10.6768193643   0 0 0
C 17.1281853353 9.0913948771 10.4996993643   0 0 0
C 16.0250153453 13.2252098471 10.7011843643   0 0 0
C 13.0955303653 16.2811048271 10.6843043643   0 0 0
C 8.9853253953 17.0677348171 10.6860593643   0 0 0
C 5.3926654253 14.8930248371 10.6859143643   0 0 0
C 3.7859304353 10.9903898671 10.6854293643   0 0 0
C 4.6186954253 6.8492498971 10.6844143643   0 0 0
C 7.4655404053 3.7170849171 10.6850643643   0 0 0
C 11.4730653753 2.3476649271 10.6855393643   0 0 0
C 15.6704853453 2.9646849271 10.6855643643   0 0 0
C 19.1590353253 5.3668699071 10.6845793643   0 0 0
C 20.8543453153 9.2228648771 10.6832643643   0 0 0
C 20.1215803153 13.3877248471 10.6826093643   0 0 0
C 17.7399553353 16.9104748171 10.6855643643   0 0 0
C 14.4037003553 19.5645947971 10.6933843643   0 0 0
C 10.5930603853 21.6120847871 10.6436593643   0 0 0
C 17.0031103353 9.6538348771 11.9183143543   0 0 0
C 15.6189703453 13.8264648471 11.9192343543   0 0 0
C 12.4645653753 16.6104098271 11.9194843543   0 0 0
C 8.2946104053 16.8896048171 11.9207943543   0 0 0
C 4.9646104253 14.3207848371 11.9196143543   0 0 0
C 3.7581554353 10.2774698671 11.9197193543   0 0 0
C 4.9758154253 6.2319148971 11.9187643543   0 0 0
C 8.0784404053 3.3514699171 11.9188693543   0 0 0
C 12.1851353753 2.3183749271 11.9199943543   0 0 0
C 16.3255803453 3.2455849171 11.9197243543   0 0 0
C 19.5959753253 5.9286498971 11.9192093543   0 0 0
C 20.8861453153 9.9340598671 11.9177543543   0 0 0
C 19.8115503153 14.0282698371 11.9176143543   0 0 0
C 17.2369853353 17.4126448171 11.9206443543   0 0 0
C 13.7702003653 19.9328997971 11.9209243543   0 0 0
C 9.9130453953 21.9200947871 11.9185293543   0 0 0
C 16.8008353453 11.1373448671 11.9188393543   0 0 0
C 14.7443353553 14.9423998371 11.9196643543   0 0 0
C 11.1134753853 17.0540648171 11.9200293543   0 0 0
C 7.0006604153 16.2940098271 11.9208443543   0 0 0
C 4.2951854353 13.0629448471 11.9189393543   0 0 0
C 3.9047154353 8.8602048771 11.9190943543   0 0 0
C 5.8425654253 5.1018699071 11.9190643543   0 0 0
C 9.3829153953 2.7791699271 11.9189543543   0 0 0
C 13.6058103653 2.4231699271 11.9202643543   0 0 0
C 17.5614503353 3.9531849171 11.9193693543   0 0 0
C 20.3009903153 7.1658448871 11.9188043543   0 0 0
C 20.7548003153 11.3517498571 11.9171343543   0 0 0
C 19.0808703253 15.2497498371 11.9187593543   0 0 0
C 16.1611553453 18.3432398071 11.9212193543   0 0 0
C 12.5113453753 20.6202297971 11.9202993543   0 0 0
C 8.6783504053 22.4462247771 11.9129493543   0 0 0
C 18.2838635395 8.8052335924 14.2531889584  
C 16.7319384990 11.9106521249 13.1874417896  
C 14.2436603925 15.4692048503 13.1526023394  
C 10.4031362698 17.3096923289 13.1172910513  
C 6.3946716413 15.9793310399 13.1670994983  
C 3.8748437830 12.4307519979 13.1623041749  
C 3.9671358555 8.1525052177 13.1372609049  
C 6.3664862880 4.6083306183 13.1527288276  
C 10.0291257865 2.5002024924 13.1951238027  
C 14.2891315329 2.4588138037 13.2191467199  
C 18.2122301306 4.3001759324 13.1513829961  
C 20.2526473054 7.9554170661 13.1551747084  
C 20.7483956466 12.0848489964 13.1460923599  
C 18.7121537343 15.8682796987 13.1821303060  
C 15.6322116982 18.8444501524 13.1251222162  
C 11.9553300734 21.1788689857 13.1451323923  
C 17.5057898121 9.2549224392 13.1553970640  
C 15.9915067447 13.1626063693 13.1379451857  
C 13.1478108216 16.3578877273 13.1531268077  
C 9.0505777776 17.1933194165 13.1310008930  
C 5.2761911592 15.0302581371 13.1666359181  
C 3.5912955263 11.0675717280 13.1547902433  
C 4.5681832387 6.8945425135 13.0989233227  
C 7.4700406189 3.7166914679 13.2076074005  
C 11.3964347290 2.1756217761 13.1600825973  
C 15.7040350895 2.7964949207 13.1976087137  
C 18.9910635514 5.4715765673 13.1224182806  
C 20.7087625787 9.2505185226 13.1318967644  
C 20.2678208967 13.4627540460 13.1132050180  
C 17.8077378654 16.9297497243 13.1743500065  
C 14.5944348056 19.8031943370 13.0829387590  
C 10.6716840249 21.8766380443 13.1475305852  
C 17.5925867208 10.0825638443 14.3696435603  
C 15.5749276725 13.8873393658 14.2239749935  
C 12.4428550512 16.9004026633 14.2745688092  
C 8.2368646950 17.1602234858 14.2470782341  
C 4.6496210931 14.3275272696 14.2040564701  
C 3.4853616521 10.1600514680 14.2403525918  
C 4.8463560076 6.0643010685 14.2089320954  
C 8.0696511574 3.1286802860 14.3003602401  
C 12.2741043324 2.0692208359 14.2015580226  
C 16.5491406554 3.0552100781 14.2604651957  
C 18.8350100457 6.3609225466 14.2311235043  
C 20.8746739519 10.0706776284 14.2491047768  
C 20.0720065444 14.1884925335 14.3564158527  
C 17.1319133900 17.5408747435 14.2128417978  
C 13.9752026194 20.4045057603 14.2088359965  
C 10.1687149295 22.4711321479 14.3855905939  
C 17.1497489056 11.4027944460 14.4575646100  
C 14.8400018815 14.8871816970 14.2391150676  
C 11.2450776049 17.1967047700 14.2209118010  
C 7.1137203559 16.5907889684 14.1997526104  
C 4.0890714881 13.1846561344 14.2940205406  
C 3.7949489774 8.9526926421 14.3198938817  
C 5.7434950779 5.1984704869 14.2655884610  
C 9.1822272086 2.5597132512 14.2793784105  
C 13.4751833793 2.2093271078 14.3220810714  
C 17.6417174112 3.6282965929 14.1894139906  
C 19.3168630480 7.6651009207 14.1630168121  
C 20.9631871521 11.3621080573 14.3378938950  
C 19.2468618064 15.0922837740 14.2008613037  
C 16.2855256735 18.4129744142 14.2865099800  
C 12.8236135370 20.9093957801 14.2059125190  
C 8.9407192025 23.0027904250 14.3624567316  

