&CONTROL
calculation = 'md'
    restart_mode='restart',
    prefix='ns',
    nstep=2000,
    pseudo_dir = '/home/elmer.barquero/carbon_nn/pseudo',
    outdir= '.',
    max_seconds=86000
    dt              = 20.67        
/
&SYSTEM
   ntyp             = 5
   nat              = 584
   ibrav            = 0
   occupations='smearing', smearing='mp', degauss=0.02,
   vdw_corr='dft-d3'

/
&ELECTRONS
!   diagonalization  = 'cg'
   mixing_mode      = 'local-TF'
   mixing_beta      = 0.2
!   mixing_ndim      = 8
   conv_thr         = 1.0D-4
   electron_maxstep = 500
/
&IONS
!  ion_dynamics   = 'beeman'          ! Algorithm to move ions
  ion_temperature= 'svr'         ! <-- Use Stochastic Velocity Rescaling
  tempw          = 300.0             ! The target temperature in Kelvin
/
&CELL
/

ATOMIC_SPECIES
Cl 35.45 Cl.pbe-n-kjpaw_psl.1.0.0.UPF
Al 26.9815385 Al.pbe-n-kjpaw_psl.1.0.0.UPF
N 14.007 N.pbe-n-kjpaw_psl.1.0.0.UPF 
C 12.011 C.pbe-n-kjpaw_psl.1.0.0.UPF 
H 1.008 H.pbe-kjpaw_psl.1.0.0.UPF 

K_POINTS gamma

CELL_PARAMETERS angstrom
25.00000000000000 0.00000000000000 0.00000000000000
0.00000000000000 25.00000000000000 0.00000000000000
0.00000000000000 0.00000000000000 16.80000000000000


ATOMIC_POSITIONS angstrom
Cl 23.6476744653 11.6711158706 2.6821726939  
Cl 21.4821980865 9.7145530084 0.6405528967  
Cl 24.8946765848 10.2091501887 -0.1181939911  
Al 23.5183938016 9.8913033189 1.4571132990  
Cl 15.9520461730 13.3344398192 3.7869076080  
Cl 15.0296830261 15.9695360872 1.3783288810  
Cl 14.3877071223 12.6362662518 0.7266826960  
Al 14.6831087024 14.0942094522 2.2739738036  
Cl 4.5790525103 1.4331940778 6.7619488512  
Cl 2.3506933096 3.4904202103 -3.1931097067  
Cl 4.4301174112 4.6112332682 5.2541707788  
Al 4.3091225860 2.4953108264 5.0408491036  
Cl 7.9178578576 10.1492732006 0.6398966168  
Cl 7.6569265747 7.7617918600 3.4822821735  
Cl 5.4602609907 7.5385697613 0.7248230650  
Al 6.6976073453 8.9245488277 1.8887111218  
Cl 1.9413541725 0.1299366991 -2.2474936774  
Cl 5.1548886568 1.2127093490 -3.3946599697  
Cl 3.8603293793 2.3751607852 -0.1287500958  
Al 3.3664898089 1.7941844776 -2.2926634777  
Cl 6.4666871214 20.9407380135 9.7287208731  
Cl 9.1049840141 21.3277241428 6.9992274512  
Cl 7.1668758954 24.2369833124 9.0545999971  
Al 7.9692942395 22.4957259489 10.0003861241  
Cl 23.5957533423 17.8757404735 -1.4043569059  
Cl 26.2710070949 20.1933939445 -2.3360958321  
Cl 25.0329400481 14.3081373343 0.6830382477  
Al 25.2709850266 19.0672792055 -0.8189659650  
Cl 9.1962781165 17.1139765638 1.5492073880  
Cl 8.6687209699 20.0114851070 -0.2881796842  
Cl 7.4659073254 19.8136823914 3.1133963280  
Al 7.7824558404 18.5726446123 1.3856327864  
Cl 10.1908219924 21.7219126860 2.5104831627  
Cl 11.8041544143 19.1705671854 0.3345050124  
Cl 11.1964465064 22.3133048155 -0.8697112706  
Al 10.5399996017 20.7561235810 0.6630336473  
Cl 1.6886582395 17.3297482174 -0.4173705817  
Cl 1.5559793313 16.4745882738 3.3046997333  
Cl 3.5357771408 14.7027418516 0.9748669962  
Al 1.6439332139 15.7449349843 1.3266413236  
Cl 10.4181510341 9.4541413054 -6.7101855144  
Cl 13.6937310918 9.8770462415 -5.3473454342  
Cl 10.1437533471 9.7450716167 -3.6188679522  
Al 11.6159725157 10.4810502810 -4.9969185576  
Cl 11.4867476490 6.8113480648 7.7220714068  
Cl 10.5408619416 10.2086555168 6.6804293519  
Cl 8.1268515059 7.6758150378 8.6530149189  
Al 9.9206067366 8.4241264581 7.9065218895  
Cl 11.9275253454 23.0178051899 5.9437216816  
Cl 14.7582923069 21.2775328150 6.4811748867  
Cl 12.3774764069 19.4197052424 5.0037261742  
Al 12.5830370505 21.0326723608 6.3844480991  
N 8.8866972402 4.2257779693 0.4704383133  
N 8.3162961421 2.1242511009 0.4742765562  
C 8.8239169746 5.7062812479 0.5152501383  
C 7.8297495470 3.3702897903 0.4892853220  
C 10.0421639696 3.5011922281 0.3776839248  
C 9.6828235983 2.1292037363 0.3652640340  
C 8.5714391532 6.2979935036 -0.8799953587  
C 7.5006988273 0.9130425270 0.1705639312  
H 7.9975077074 5.8960460727 1.1937913798  
H 9.7995967188 5.9456415405 0.9146260360  
H 6.7769819690 3.6105625487 0.3721021541  
H 11.0182204596 3.9796701712 0.3375751937  
H 10.2730254017 1.2373890363 0.2575821439  
H 9.4559907725 6.4163681887 -1.5587154927  
H 8.1884554505 7.3217292701 -0.7243992755  
H 7.8471793487 5.7400923575 -1.4708227738  
H 6.7451355069 0.7383386906 1.0248267456  
H 6.9674736632 1.0430411917 -0.7377756339  
H 8.1154744230 0.0363267273 0.1116744257  
Cl 5.4550559739 1.4627631155 3.5037742455  
N 19.8916830128 9.0037299214 4.6603407382  
N 20.0779790548 7.1561596865 3.4916523987  
C 19.8759275474 10.4078265177 5.1569827121  
C 20.3939820295 8.4737633187 3.5488135065  
C 19.3191845507 8.0335782997 5.3920974695  
C 19.3383289005 6.8910095727 4.6525380945  
C 18.5034664629 11.1502778479 5.0980672072  
C 20.5138372242 6.2494276821 2.4536841664  
H 20.2423035607 10.3395481747 6.1967680855  
H 20.6846943707 10.8679903128 4.5774100828  
H 20.8358818735 9.0349036294 2.7446980921  
H 18.9578406925 8.2347541709 6.3802430126  
H 19.0699840033 5.8546699133 4.8907446435  
H 17.9890890662 11.2830184369 4.1277760834  
H 18.7292018935 12.1716137651 5.5358992018  
H 17.8278913635 10.7642899452 5.8105049297  
H 21.4693553366 6.5997146723 2.0529045602  
H 20.6222409203 5.2256816712 2.8589476817  
H 19.7473995798 6.1891332871 1.6677577679  
Cl 21.7015080756 6.8071391012 7.0450350468  
N 13.4287348678 8.9839837981 3.9925431876  
N 12.2249107893 10.0749866274 2.5082178081  
C 14.0414171717 7.8103691466 4.6668253972  
C 12.9167869486 8.9391464474 2.7237809642  
C 13.0912230419 10.2077816998 4.5351376141  
C 12.2353059108 10.8041991433 3.6568039645  
C 15.2448554037 7.2554158629 3.9666127692  
C 11.7696103142 10.4275153413 1.1555915101  
H 14.2419103292 8.0683903874 5.7350884619  
H 13.2669426852 7.0605446791 4.6605102019  
H 12.9300720797 8.0858393717 1.9692519292  
H 13.3237349693 10.5799825126 5.5386163059  
H 11.7323462144 11.7499603029 3.7339889952  
H 14.9535495553 7.0817240388 2.9287798377  
H 15.4819247350 6.3225638914 4.4825142829  
H 16.1620500758 7.8704417341 3.9819263529  
H 11.5637567139 9.4701194414 0.7138921847  
H 10.8450014607 10.9670009016 1.0974146390  
H 12.5817603925 10.9597495848 0.7160680177  
Cl 11.6701035305 12.7029171203 -5.0193572759  
N 10.3055070056 3.4334192499 4.8841198341  
N 11.1477339341 1.5821437912 4.2189090737  
C 10.1049237082 4.9054411696 5.0682414215  
C 11.4297701668 2.8926173992 4.3931786818  
C 9.3484659561 2.4664825550 5.1102172195  
C 9.8967482227 1.2934723171 4.6646299828  
C 10.7616440761 5.7896964289 4.0509938842  
C 11.8363306290 0.6307820850 3.3444206417  
H 9.0076847824 5.0511063457 5.0909414994  
H 10.5128654752 5.0913521058 6.0729726555  
H 12.2769004533 3.4632727238 4.0186965115  
H 8.3974846989 2.6436566541 5.6026994714  
H 9.5437102977 0.2631926634 4.7167042363  
H 11.8724065135 5.7040118361 4.0275962214  
H 10.5514503430 6.8062873546 4.3717060924  
H 10.4029157449 5.7350662099 3.0331929804  
H 11.1393333961 0.3738936212 2.5428655085  
H 12.7331785535 1.0686165987 2.8766459682  
H 12.1746098626 -0.2721757726 3.8669321497  
Cl 13.3169257348 2.0620145248 6.7989355192  
N 1.1096766778 20.5190937347 8.7022612438  
N 2.9036034052 19.6056281769 9.5611524104  
C -0.0322315388 21.4282588616 8.4382500882  
C 2.0830074632 20.6798949804 9.6245136305  
C 1.3267526438 19.3377518327 8.0568449475  
C 2.4361901337 18.7287628997 8.5991284903  
C 0.3984534821 22.4709470866 7.4100257249  
C 3.9645932850 19.2569604962 10.4281666743  
H -0.7889883914 20.7672723482 7.9211593144  
H -0.3993262847 21.8584246439 9.3932581445  
H 2.2217884300 21.5860236255 10.2110348678  
H 0.7477845086 19.0026380690 7.1694575821  
H 2.8671013118 17.7535764153 8.5095868069  
H 1.0613941647 23.2095419067 7.9012117324  
H -0.5080975980 22.9360763473 7.0641378436  
H 0.9406542121 21.9154802876 6.5791934421  
H 4.2393059907 20.1966585499 10.9908350393  
H 3.6338652882 18.4702803479 11.0943927582  
H 4.8418310896 18.9238553015 9.9001724956  
Cl -3.6367873751 23.6372898053 7.6043353069  
N 16.7158194049 0.1775447589 4.1679483179  
N 18.4249462200 1.0457799293 3.2204024469  
C 15.6247089078 -0.7781719700 4.5152496839  
C 17.6709538212 -0.0547209832 3.2330655940  
C 16.8442749076 1.4871956150 4.6641873330  
C 17.9197958340 2.0278687423 4.0048940689  
C 14.9069759003 -1.3903060480 3.2891790928  
C 19.6673845281 1.1324908181 2.4698597028  
H 16.0429591914 -1.5213431610 5.1754436269  
H 14.9536507826 -0.1231303824 5.0694327092  
H 17.9191246840 -0.9944912502 2.7090437790  
H 16.0992541046 1.8509097670 5.3515450286  
H 18.3761517289 3.0135303566 4.1237116786  
H 14.2715553984 -0.6556524787 2.7869769746  
H 14.2109972034 -2.2236957722 3.6064357610  
H 15.5436635874 -1.8304819112 2.5189725615  
H 19.4448568554 1.9279895111 1.6785718651  
H 20.4508246217 1.4724559005 3.1670262438  
H 19.9112787106 0.2288951339 1.9485695287  
Cl 20.8765404802 3.8631924854 4.8941924247  
N 15.3873549413 18.5463745421 3.8652140679  
N 16.0204058568 20.0054819509 2.3605034632  
C 14.8667503273 17.3270212866 4.5188505594  
C 15.2593787044 18.9279496681 2.5572351987  
C 16.3207012335 19.4148546572 4.4807231234  
C 16.7152346245 20.3001641304 3.5124626015  
C 15.7748982953 16.6313469839 5.5041063960  
C 16.0856791257 20.8282119288 1.1218476245  
H 13.9020679629 17.6309473491 4.9674922365  
H 14.5382073674 16.6407773068 3.7220831544  
H 14.5446498310 18.4796970249 1.8717852491  
H 16.5349254345 19.3286108046 5.5362186861  
H 17.3626051807 21.1655605877 3.5809071604  
H 16.5753164248 16.0742247704 4.9804318095  
H 15.2283573401 15.8003149465 5.9357341699  
H 16.1641130069 17.2067210881 6.3062505164  
H 16.5622178379 20.2083781854 0.3069465422  
H 15.0477429160 21.0776498047 0.8079451624  
H 16.6983921212 21.7249796922 1.4079526323  
Cl 12.7073196715 14.3215344380 3.1852895114  
N 13.8340431557 6.5011905798 -3.7596077145  
N 11.8435673767 6.2087759410 -4.4827825213  
C 14.8327592654 6.8587106145 -2.7125230035  
C 12.5343958393 6.4710730748 -3.3995429908  
C 13.9562213306 6.2571947390 -5.1006802728  
C 12.6912823346 6.0726291262 -5.5758446419  
C 14.5486577247 8.2004116981 -2.0485737618  
C 10.3890089720 6.1232785859 -4.6124464376  
H 14.8065773842 6.0095411377 -2.0111306449  
H 15.8405596418 6.8175901483 -3.2403416506  
H 12.1803244418 6.6554635881 -2.3790474088  
H 14.8830509577 6.2819986242 -5.6119089165  
H 12.2524514212 5.8776450474 -6.6006713583  
H 14.4528944532 9.0397272710 -2.7428790715  
H 15.4121296580 8.4331433813 -1.3867339068  
H 13.6295377406 8.1685262622 -1.4317924658  
H 9.9464872681 5.7682093506 -3.6895493601  
H 10.0128200445 7.1455462426 -4.8267486187  
H 10.1820834357 5.3977841412 -5.3983848215  
Cl 12.4967853421 5.8933809006 0.9199674327  
N 20.0316119744 14.3023447917 1.4823122456  
N 21.7051936345 14.9143361522 2.7128743166  
C 19.0119452221 13.3331099252 1.0128522503  
C 20.5335464468 14.2944106843 2.7364928531  
C 20.8648012331 15.0606217148 0.6599235244  
C 21.9407292786 15.3849346624 1.4140973122  
C 17.7042255591 13.9272182976 0.5943366664  
C 22.5453725721 15.0116322010 3.8492591990  
H 19.4721771715 12.6782918643 0.2537763853  
H 18.7891454412 12.6764673632 1.8203354802  
H 20.1446516072 13.7782792491 3.6066484624  
H 20.7240542889 15.2755428418 -0.4235168442  
H 22.9001286827 15.8518148493 1.1508920286  
H 17.2431240818 14.4497536139 1.4336390287  
H 17.0081306196 13.1684125747 0.2234921920  
H 17.7700382464 14.7172043173 -0.1494990736  
H 22.7018759128 16.0222865651 4.2323855136  
H 22.1302929160 14.3484782955 4.5850368163  
H 23.4981095666 14.5713012375 3.5740556728  
Cl 24.9368330684 20.3208939176 0.9179928294  
N 23.0004725611 24.8192053457 2.7169286215  
N 22.0212426491 23.4263899184 4.0394180244  
C 23.8660627105 25.2137597854 1.6052980558  
C 22.4931221148 23.5770470445 2.8144607620  
C 22.7095991216 25.5263955962 3.8437741212  
C 22.0889020179 24.6454127677 4.6843515648  
C 25.3450159497 25.2830510026 2.0658404533  
C 21.5729816564 22.0872484332 4.4769719433  
H 23.7831503583 24.4309673089 0.8579116491  
H 23.5326577921 26.1829487723 1.2153831559  
H 22.5062258789 22.8234213515 2.0010991372  
H 22.9945738553 26.5713759295 3.9897902788  
H 21.7680628425 24.7263292269 5.7303298301  
H 25.9642239238 25.8278571799 1.3756704860  
H 25.7298070470 24.2408685141 2.2049562283  
H 25.4217434353 25.6915043692 3.0767331358  
H 20.5464147133 22.0948653236 4.7790153847  
H 21.6549460063 21.5111599767 3.5315100083  
H 22.3454581069 21.6366340284 5.0795952295  
Cl 19.4184421238 22.7041076722 1.7044932577  
N 5.2478897632 10.8633188700 3.9165760014  
N 4.4242092512 10.9128125097 1.9463704529  
C 6.1375723460 10.5766871603 5.0603365962  
C 5.3620855320 10.2670844659 2.7067794278  
C 4.2627191036 11.8297623884 3.9755840444  
C 3.7338549139 11.8694289773 2.7386101533  
C 7.2997573259 11.5303943163 5.1227992844  
C 3.9755111720 10.6359920456 0.5728836449  
H 5.4980430194 10.6579024175 5.9169590097  
H 6.4298046121 9.5304998570 4.9115592968  
H 12.3464183656 13.8556549138 -0.0587084428  
H 4.1117881576 12.4414922891 4.8332577781  
H 2.9481260687 12.4389641051 2.3544906131  
H 7.9217571622 11.4862542822 4.1898206455  
H 7.9272654469 11.4047883533 6.0002770969  
H 6.9311208151 12.6076715377 5.1654849016  
H 4.7862109568 10.0660450153 0.0461458943  
H 3.0483270969 10.0641988677 0.6218568467  
H 3.8339299206 11.6128186821 0.1300062059  
Cl 11.0283433109 13.6046848264 -0.2425342088  
N 25.2574125273 5.0179517783 4.0476246582  
N 25.5671303830 4.9574073825 1.8611233912  
C 25.5699756335 5.2226552666 5.4910012074  
C 26.1339353343 5.1164343197 3.0682158703  
C 23.9678652313 4.8979534293 3.4523464970  
C 24.1871296564 4.9516823011 2.0613032466  
C 25.4412537807 6.6767668537 5.8928552508  
C 26.2094215112 5.2805908283 0.5273698761  
H 24.9071827353 4.5670685855 6.0731823426  
H 26.6088824250 4.8701506440 5.4898168191  
H 27.1965628640 5.2378764563 3.2451466840  
H 23.0384719618 4.7728119976 4.0133509309  
H 23.4860640695 5.1695944829 1.2896576910  
H 26.0053702853 7.2721338479 5.1748070882  
H 25.8549617559 6.8478092861 6.9063856880  
H 24.3969532138 6.9981462530 5.8327981214  
H 26.1281409336 6.3513796520 0.3549984758  
H 27.2445842273 4.9515181865 0.5015195996  
H 25.6425398505 4.7737342848 -0.2645233746  
Cl 17.6954209609 6.1863004017 -1.3041918355  
N 20.3079621115 18.2431148818 4.1754177820  
N 20.8862965964 19.0248704216 2.2273483705  
C 20.2640127477 18.3147767681 5.6811704132  
C 21.2775175549 18.8949410987 3.5103516628  
C 19.2820628419 17.8752760191 3.3155856686  
C 19.6644957427 18.3915318293 2.0979072630  
C 21.3818673648 17.5403985960 6.3551660514  
C 21.4727443838 19.8690774849 1.1482429771  
H 20.2740411566 19.3533192016 6.0204745321  
H 19.3065107299 17.8771071100 5.9832429714  
H 22.2075299828 19.2747400156 4.0044721446  
H 18.3454683892 17.3753476907 3.5412979286  
H 19.1093007971 18.3578981541 1.1624910717  
H 21.5798370832 16.5503860714 5.9032964898  
H 20.9472036956 17.2950010679 7.3465766621  
H 22.3693777527 18.0598029778 6.4005222104  
H 21.3920206279 19.2930611269 0.2209272419  
H 20.9234793809 20.7831197916 1.0883410903  
H 22.5370155819 20.0477040698 1.3458141513  
Cl 23.9911570033 19.7583679071 5.2712996260  
N 24.5274428314 11.0283320210 12.7516927308  
N 24.8242898502 9.6774107619 11.0888769244  
C 23.9815202380 12.2432903397 13.4317414405  
C 24.2169794328 10.7980607525 11.4859785312  
C 25.3069417036 9.9998506710 13.2384432694  
C 25.5398400049 9.1431675237 12.1912150054  
C 24.9643465665 13.0783537707 14.2516921548  
C 24.7267050903 9.0582857559 9.7979069395  
H 23.5833903599 12.7965826697 12.6152847602  
H 23.1718165628 11.9149837884 14.0783829320  
H 23.6168672843 11.3565239131 10.8020842888  
H 25.6773946917 9.9543581113 14.2571247100  
H 26.0906983557 8.2157349626 12.1221756051  
H 25.2605271408 12.5313719479 15.1355490395  
H 24.4785647097 14.0275966436 14.5105919450  
H 25.8573460998 13.3672301366 13.7154019675  
H 23.6893036728 8.8297228769 9.5605719994  
H 25.1906184435 9.6120141793 9.0048837949  
H 25.3038934254 8.1222627805 9.7755504916  
Cl 23.7151591135 8.0213684499 2.4415569517  
N 7.4104693122 16.0195534290 5.2478566660  
N 5.6943568493 17.3330358790 4.8823900409  
C 8.5814438407 15.4159090941 5.8573746550  
C 6.8175193933 17.1605939367 5.6683070451  
C 6.7069631867 15.5165158885 4.1638972473  
C 5.6518763100 16.3245654393 3.8898129590  
C 9.8695867943 15.7375995607 5.1162944652  
C 4.6563525428 18.3227359671 5.1723752608  
H 8.6091405079 15.7390225135 6.9106614447  
H 8.3708263742 14.3452896988 5.8451579194  
H 7.0957046444 17.7117014545 6.5611792530  
H 7.0019865005 14.6225481399 3.5756158780  
H 4.8996748814 16.0890176248 3.1479392293  
H 9.9916478159 16.8013765076 5.0652395394  
H 9.8830605017 15.3687227019 4.0874484223  
H 10.7079021858 15.2665364413 5.6279931440  
H 3.6997467204 17.8208664211 5.1105238151  
H 4.8596752880 18.7438541699 6.1880971238  
H 4.7161019939 19.1836854711 4.5092978855  
Cl 4.1314799311 14.7985546693 6.9332858142  
N 4.2830337295 23.2020506604 2.7283559540  
N 4.6971243719 22.5593379908 4.7255645757  
C 4.5576152206 23.5221289896 1.3199212402  
C 5.0284010326 22.4019862598 3.4149200977  
C 3.3294259357 23.8110191929 3.5372145823  
C 3.6230123889 23.4227088768 4.8128602186  
C 3.3678997362 23.2436096555 0.4395804301  
C 5.4023561422 21.8420659941 5.8195752241  
H 4.7975793838 24.6317247603 1.2766000110  
H 5.4586892685 22.9218525566 1.0669695899  
H 5.8784609445 21.7805181377 3.1137855979  
H 2.6300379080 24.5309829326 3.1812882408  
H 3.2431454543 23.8231504323 5.7946649073  
H 3.1983003199 22.1893688826 0.1852976211  
H 3.4018846584 23.8220908142 -0.4846418621  
H 2.5077406502 23.6453191975 0.9446429671  
H 4.6758584491 21.6157670156 6.5826880965  
H 5.7850279525 20.8955848193 5.4563784674  
H 6.2116759516 22.4724328678 6.1812665755  
Cl 5.6499309124 17.9493671918 0.9112392369  
N -3.3282799174 2.2316782038 10.2370892623  
N -4.9469871563 0.8488946380 10.5052318527  
C -2.2715917340 2.9829059841 9.5646253386  
C -3.8902159772 1.1278469279 9.7432311994  
C -3.9694285305 2.5794870943 11.4605610668  
C -4.9910733012 1.7118979937 11.6308078592  
C -2.2683621627 2.8314737399 8.0222267020  
C -5.9570815926 -0.1563805192 10.0979764981  
H -2.4556659707 4.0326463116 9.7754476578  
H -1.2887693365 2.7204089415 9.9850402933  
H -3.6320143653 0.4499298560 8.8795692079  
H -3.6444478175 3.4482155078 12.0067722575  
H -5.7997063339 1.6932365806 12.3416457844  
H -2.7944538279 3.6320371240 7.4693835710  
H -2.6473805133 1.8521395923 7.6871669739  
H -1.2119428384 2.8807179906 7.6741116404  
H -6.8863537532 0.3960643061 9.9579315951  
H -5.6056208051 -0.5989870393 9.1428779899  
H -6.1571569854 -0.8972993249 10.8891741654  
Cl 2.2381736320 1.8996205163 4.5247707365  
C 17.2330743355 7.5359443736 8.1467003993  
C 16.8000578785 12.0745710632 8.2920971354  
C 14.3252082474 15.6940829036 8.3420739089  
C 10.2705349156 17.2456801534 8.3450680511  
C 6.1895183680 16.0652702686 8.2941021066  
C 3.7457953252 12.3206377210 8.4482057173  
C 3.7790609088 8.0126743967 8.4326078743  
C 6.4306623557 4.5175075703 8.3563206797  
C 10.0995021418 2.2570967799 8.2736622587  
C 14.3373685726 2.5458413031 8.2517440105  
C 18.4270013123 4.2394414784 8.4327448544  
C 21.1239896047 7.8321927362 8.3597235306  
C 20.7783547853 12.1706013593 8.3484425996  
C 18.4586630065 15.8816830364 8.4692561670  
C 15.7144718275 19.1513133904 8.3229574904  
C 11.6981426307 20.9848385004 8.1108969033  
C 17.3323481823 8.8385386516 8.3868212270  
C 16.4012889097 13.2419452111 8.4020057191  
C 13.3332269202 16.4222704551 8.4341715833  
C 9.0406316934 17.2945608298 8.3067021483  
C 5.2823639739 15.1123660445 8.3266865319  
C 3.5316054293 11.0753894347 8.3432790515  
C 4.2688037681 6.8868314831 8.4214318414  
C 7.3735805655 3.7459643137 8.3824710343  
C 11.3475251291 2.1259804388 8.4306287020  
C 15.6356373093 3.0423245645 8.1667636968  
C 19.3420440937 5.0911892447 8.3853408259  
C 21.1975100661 9.2221746656 8.2310247498  
C 20.2276582748 13.3294711434 8.2973705779  
C 17.7874189443 16.9179121080 8.2957377602  
C 14.7538116019 19.9452401954 8.4999089573  
C 10.3452573093 21.4262673419 8.3266511734  
C 17.2560424477 9.9091149255 9.3651855821  
C 15.7824327806 13.9246228743 9.4470328396  
C 12.4912744843 16.6855914358 9.4681243780  
C 8.2308463384 17.0557750566 9.4832789974  
C 4.9752342530 14.3403468256 9.4468111317  
C 3.5950474922 10.2478488114 9.5137271754  
C 4.9033387751 6.2044280077 9.4390492445  
C 8.1541988880 3.3691011665 9.4349980181  
C 12.2377852420 2.2779595328 9.4974100453  
C 16.3020971393 3.1987189854 9.3830923671  
C 19.7969630182 5.8721821787 9.4385403221  
C 20.9678702147 9.9303955926 9.4993980187  
C 19.8047479645 14.0071985647 9.4710878854  
C 17.1572158999 17.4408174811 9.4884625854  
C 13.8081327128 20.1541695046 9.4291783528  
C 9.8497652788 21.8501726574 9.5238786615  
C 16.9779920684 11.2570363555 9.3697888784  
C 14.8953685728 15.0059182862 9.3792616332  
C 11.1323370874 17.1336431234 9.4408753042  
C 6.9615535546 16.3932549506 9.4617797122  
C 4.2469956136 13.1194368732 9.4538861229  
C 3.6932259710 8.8504245287 9.5208652686  
C 5.8412255183 5.1621083755 9.4423628961  
C 9.3607303212 2.6581544703 9.4306625559  
C 13.6170564598 2.4485751970 9.4322327237  
C 17.5672783210 3.9319500056 9.4620673151  
C 20.5302190240 7.0769742627 9.4775063417  
C 20.9161309926 11.3673373705 9.4912442268  
C 19.1783911192 15.2490895668 9.4572805141  
C 16.1997398032 18.4305380719 9.4432195521  
C 12.4009370865 20.6246111172 9.3826400942  
C 8.3817502061 22.8823193893 13.1603945689  
C 16.8016378553 7.9054367485 9.6771671097  
C 16.6453453453 11.9377898571 10.7111293643   0 0 0
C 14.2415203553 15.4404598271 10.6846043643   0 0 0
C 10.4073453853 17.1519998171 10.6854393643   0 0 0
C 6.4143504153 15.8864048271 10.6863193643   0 0 0
C 4.0578854353 12.3890098571 10.6850343643   0 0 0
C 4.0797504353 8.1682248871 10.6851043643   0 0 0
C 6.3441854153 4.5955599071 10.6846743643   0 0 0
C 10.0672803953 2.5772699271 10.6851643643   0 0 0
C 14.3065653553 2.5532749271 10.6859293643   0 0 0
C 18.1337853353 4.3778999071 10.6850493643   0 0 0
C 20.5600003153 7.8291448871 10.6840293643   0 0 0
C 20.5994953153 12.0458148571 10.6821943643   0 0 0
C 18.6653053253 15.8275648271 10.6844243643   0 0 0
C 15.5915953553 18.7751748071 10.6900343643   0 0 0
C 11.8840853753 20.9544347871 10.6768193643   0 0 0
C 17.1281853353 9.0913948771 10.4996993643   0 0 0
C 16.0250153453 13.2252098471 10.7011843643   0 0 0
C 13.0955303653 16.2811048271 10.6843043643   0 0 0
C 8.9853253953 17.0677348171 10.6860593643   0 0 0
C 5.3926654253 14.8930248371 10.6859143643   0 0 0
C 3.7859304353 10.9903898671 10.6854293643   0 0 0
C 4.6186954253 6.8492498971 10.6844143643   0 0 0
C 7.4655404053 3.7170849171 10.6850643643   0 0 0
C 11.4730653753 2.3476649271 10.6855393643   0 0 0
C 15.6704853453 2.9646849271 10.6855643643   0 0 0
C 19.1590353253 5.3668699071 10.6845793643   0 0 0
C 20.8543453153 9.2228648771 10.6832643643   0 0 0
C 20.1215803153 13.3877248471 10.6826093643   0 0 0
C 17.7399553353 16.9104748171 10.6855643643   0 0 0
C 14.4037003553 19.5645947971 10.6933843643   0 0 0
C 10.5930603853 21.6120847871 10.6436593643   0 0 0
C 17.0031103353 9.6538348771 11.9183143543   0 0 0
C 15.6189703453 13.8264648471 11.9192343543   0 0 0
C 12.4645653753 16.6104098271 11.9194843543   0 0 0
C 8.2946104053 16.8896048171 11.9207943543   0 0 0
C 4.9646104253 14.3207848371 11.9196143543   0 0 0
C 3.7581554353 10.2774698671 11.9197193543   0 0 0
C 4.9758154253 6.2319148971 11.9187643543   0 0 0
C 8.0784404053 3.3514699171 11.9188693543   0 0 0
C 12.1851353753 2.3183749271 11.9199943543   0 0 0
C 16.3255803453 3.2455849171 11.9197243543   0 0 0
C 19.5959753253 5.9286498971 11.9192093543   0 0 0
C 20.8861453153 9.9340598671 11.9177543543   0 0 0
C 19.8115503153 14.0282698371 11.9176143543   0 0 0
C 17.2369853353 17.4126448171 11.9206443543   0 0 0
C 13.7702003653 19.9328997971 11.9209243543   0 0 0
C 9.9130453953 21.9200947871 11.9185293543   0 0 0
C 16.8008353453 11.1373448671 11.9188393543   0 0 0
C 14.7443353553 14.9423998371 11.9196643543   0 0 0
C 11.1134753853 17.0540648171 11.9200293543   0 0 0
C 7.0006604153 16.2940098271 11.9208443543   0 0 0
C 4.2951854353 13.0629448471 11.9189393543   0 0 0
C 3.9047154353 8.8602048771 11.9190943543   0 0 0
C 5.8425654253 5.1018699071 11.9190643543   0 0 0
C 9.3829153953 2.7791699271 11.9189543543   0 0 0
C 13.6058103653 2.4231699271 11.9202643543   0 0 0
C 17.5614503353 3.9531849171 11.9193693543   0 0 0
C 20.3009903153 7.1658448871 11.9188043543   0 0 0
C 20.7548003153 11.3517498571 11.9171343543   0 0 0
C 19.0808703253 15.2497498371 11.9187593543   0 0 0
C 16.1611553453 18.3432398071 11.9212193543   0 0 0
C 12.5113453753 20.6202297971 11.9202993543   0 0 0
C 8.6783504053 22.4462247771 11.9129493543   0 0 0
C 18.2255511925 8.7059955129 14.0944647581  
C 16.7770812519 11.9418533086 13.1800744545  
C 14.3094976760 15.4931523293 13.1671436054  
C 10.3591128763 17.1719414552 13.1497423900  
C 6.3103654805 15.9398440727 13.1668789415  
C 3.8247207820 12.4337063355 13.1191494300  
C 3.9305967524 8.0963953742 13.1704169509  
C 6.3070250621 4.5331212850 13.1811031450  
C 10.0554784162 2.4908414745 13.1494835347  
C 14.3256943977 2.3020911896 13.1496104174  
C 18.1669709498 4.3133908449 13.2198384755  
C 20.2834477699 7.9654454855 13.0940389336  
C 20.7025280078 12.0664708998 13.1435982400  
C 18.6078129979 15.7821002229 13.1520469375  
C 15.6722443679 18.9659869145 13.1112795394  
C 11.9162802895 21.1153260310 13.1621862531  
C 17.5159416522 9.1855348278 13.0703379815  
C 16.1952878956 13.2323617844 13.1157568218  
C 13.1745584539 16.3484875023 13.1891852211  
C 8.9828824045 17.0703634110 13.1817907878  
C 5.3332495316 14.9445200329 13.1806911931  
C 3.6308987654 11.0253341435 13.1488052421  
C 4.4486947496 6.8061546119 13.1692176425  
C 7.3445163286 3.6147317076 13.1840131654  
C 11.4388935259 2.2210184693 13.2178720569  
C 15.6745468299 2.7944227679 13.1216827277  
C 19.0148012005 5.4656919137 13.1495431839  
C 20.9897240560 9.2206582337 13.1762621272  
C 20.2544893228 13.4326079151 13.1767712565  
C 17.7311429532 16.9028470531 13.1637615966  
C 14.5605511684 19.8099980904 13.0768078134  
C 10.6426040309 21.7408123227 13.2028836621  
C 17.8485137657 10.0251581445 14.2876718595  
C 15.8350408958 13.9480749491 14.1893209074  
C 12.4080833113 16.8514714257 14.2211825031  
C 8.1658838014 16.9099340918 14.2938450995  
C 4.6166186162 14.3376899361 14.2498221382  
C 3.4619245961 10.2067503470 14.2555913936  
C 4.8087876640 6.0178595569 14.2613151959  
C 8.0920253281 3.1362061302 14.2681509031  
C 12.2176850539 1.9385119911 14.3558483411  
C 16.4695045232 3.0373735605 14.2344973730  
C 18.8287137383 6.4065904499 14.1714786481  
C 21.0126064798 10.1177299370 14.2270815289  
C 19.8723505856 14.1612829566 14.2745816548  
C 17.2743507491 17.6541990093 14.3061124142  
C 13.9446946697 20.3485132001 14.1885647440  
C 10.0370789264 22.3324210440 14.3617621031  
C 17.3643314616 11.2955062216 14.2755741044  
C 15.0000815541 14.9009936146 14.2286410836  
C 11.2001930827 17.0841485246 14.2480591382  
C 7.0000580780 16.4891007917 14.2632214026  
C 4.0036755584 13.2553014077 14.1885359495  
C 3.4871768725 8.9801361070 14.1869823568  
C 5.6885397814 5.1425686131 14.2448809033  
C 9.2389781240 2.6083511011 14.2703665410  
C 13.4804377128 2.0081860668 14.2094317421  
C 17.5565872978 3.6685328030 14.3199074807  
C 19.3312877226 7.7044570868 14.0370988220  
C 21.0636122861 11.3519172812 14.2617914173  
C 19.0454056664 15.0983631458 14.2628020165  
C 16.3664837447 18.5453443666 14.2489943371  
C 12.9011997317 20.9518240534 14.1026027065  
C 8.7438404525 22.8627944755 14.4329501395  

