&CONTROL
calculation = 'md'
    restart_mode='restart',
    prefix='ns',
    nstep=2000,
    pseudo_dir = '/home/elmer.barquero/carbon_nn/pseudo',
    outdir= '.',
    max_seconds=86000
    dt              = 20.67        
/
&SYSTEM
   ntyp             = 5
   nat              = 584
   ibrav            = 0
   occupations='smearing', smearing='mp', degauss=0.02,
   vdw_corr='dft-d3'

/
&ELECTRONS
!   diagonalization  = 'cg'
   mixing_mode      = 'local-TF'
   mixing_beta      = 0.4
!   mixing_ndim      = 8
   conv_thr         = 1.0D-4
   electron_maxstep = 500
/
&IONS
!  ion_dynamics   = 'beeman'          ! Algorithm to move ions
  ion_temperature= 'svr'         ! <-- Use Stochastic Velocity Rescaling
  tempw          = 300.0             ! The target temperature in Kelvin
/
&CELL
/

ATOMIC_SPECIES
Cl 35.45 Cl.pbe-n-kjpaw_psl.1.0.0.UPF
Al 26.9815385 Al.pbe-n-kjpaw_psl.1.0.0.UPF
N 14.007 N.pbe-n-kjpaw_psl.1.0.0.UPF 
C 12.011 C.pbe-n-kjpaw_psl.1.0.0.UPF 
H 1.008 H.pbe-kjpaw_psl.1.0.0.UPF 

K_POINTS gamma

CELL_PARAMETERS angstrom
25.00000000000000 0.00000000000000 0.00000000000000
0.00000000000000 25.00000000000000 0.00000000000000
0.00000000000000 0.00000000000000 16.80000000000000

ATOMIC_POSITIONS angstrom
Cl 22.0023273719 7.5129833683 3.5500188735  
Cl 20.0425141602 9.6149360235 1.6629788457  
Cl 23.4064571167 10.4089461288 2.2466334386  
Al 22.0699232498 8.7597462798 1.7468316421  
Cl 15.1042304321 12.5934252174 4.5284481567  
Cl 16.7597760241 14.6112871739 2.3149625365  
Cl 15.2056607585 11.6621411205 1.1409387079  
Al 15.0771678961 13.2839445177 2.5688457850  
Cl 4.5499316890 1.0661680330 4.7398703716  
Cl 4.7866539107 1.2123622098 1.1893546839  
Cl 4.1731571901 4.5343480788 3.6683725489  
Al 4.1954851169 2.4944530592 3.2356964464  
Cl 3.3981626550 11.1058594739 3.7172113722  
Cl 4.7769399728 7.9352536754 3.2537342255  
Cl 2.6931767329 8.6270430851 6.2688447980  
Al 4.1885241169 9.3884952127 4.7142139518  
Cl 2.6190273429 1.8426794582 -1.8561785523  
Cl 4.1731944087 -1.2741043559 -0.9277767253  
Cl 1.2550045769 0.1213022914 0.5049715567  
Al 3.1179523433 0.4380590718 -0.3490619326  
Cl 6.4000526296 22.1328533455 9.6118149485  
Cl 9.6601401283 21.9219612885 6.7796510499  
Cl 7.5789023605 24.8806940679 9.3924836586  
Al 8.2900516308 23.0033430748 9.8504938797  
Cl 23.6234508900 19.2252146995 -0.8005652128  
Cl 27.3558962093 19.3498441869 -0.3906621165  
Cl 25.8181125944 13.0377894636 0.1054040810  
Al 25.4553907783 18.7590978728 0.3146232215  
Cl 8.5564673035 16.9272075386 1.3398611296  
Cl 9.3979249557 20.0407445902 -0.0431766670  
Cl 7.4332978258 19.8680008640 2.9132227060  
Al 7.7356398982 18.8764548387 0.9661601479  
Cl 11.4092274642 20.3329081581 3.7185670992  
Cl 12.1011381097 18.6661402261 0.5997490979  
Cl 11.6905428187 22.2434089275 0.4923322696  
Al 11.2264523454 20.3863812350 1.4711880218  
Cl 0.0140411405 16.4404134644 0.2324865116  
Cl 0.7840123232 14.3771995916 3.2643404367  
Cl 3.4676789543 15.2134060953 0.9515417367  
Al 1.4628156142 14.7566616633 1.2302114955  
Cl 12.9150204520 7.9508558849 -5.5611779860  
Cl 13.1741095722 10.2150715448 -3.2706340873  
Cl 10.1670224674 8.8952750894 -2.6164836952  
Al 11.5559860741 9.2344116340 -4.1886600772  
Cl 10.6765159012 8.3657503683 8.5813374449  
Cl 9.5096331610 6.7535798975 11.7338479971  
Cl 12.1738848711 5.4235134465 9.0614828233  
Al 11.0082713853 6.8161831581 10.1918976847  
Cl 13.5732532117 23.6740903094 8.9790218370  
Cl 15.5729564006 21.2846488134 6.9688578133  
Cl 12.6670209595 23.0121244691 5.2895675510  
Al 13.4786842485 22.2980714547 7.1631475593  
N 9.6619569096 4.8809168771 1.3601938297  
N 10.4033046250 2.8340389311 1.1711808589  
C 8.6609405973 5.9634321524 1.4520899292  
C 9.3535388796 3.6408528181 0.9593999986  
C 10.9734989491 4.8799362788 1.8026019683  
C 11.4495113377 3.6011295368 1.6821104611  
C 7.6070360514 5.8840136045 0.3652402376  
C 10.1929192601 1.3824874002 1.1490121158  
H 8.1931291697 5.8846502927 2.4439774145  
H 9.2147482391 6.9039125979 1.4284619044  
H 8.3720051502 3.3027677617 0.6573842218  
H 11.4127337775 5.7724178545 2.2374347580  
H 12.4148227061 3.1712864965 1.9233746823  
H 8.0418064929 5.6561948211 -0.6187245991  
H 7.1031497370 6.8583534733 0.2882336442  
H 6.8368044346 5.1400036825 0.6085698604  
H 9.2275045756 1.1952561330 1.6382569419  
H 10.1529285342 1.0138718215 0.1206211795  
H 10.9993371736 0.8800561997 1.6867892308  
Cl 7.2793359057 2.7148721413 2.8203347172  
N 18.8223765741 10.7847403570 5.2901657752  
N 18.1426580852 8.7437968921 4.9283634176  
C 19.4686941087 11.9527903815 5.9322867660  
C 18.9576945791 9.5013399894 5.6896890537  
C 17.8967019651 10.8429084352 4.2811494272  
C 17.4908863665 9.5741214410 4.0106621281  
C 19.4983866835 13.2549127171 5.1189325731  
C 18.3304919872 7.2950223533 4.8266357194  
H 18.9198944987 12.1399574010 6.8641735223  
H 20.4724103564 11.6161746807 6.2225207330  
H 19.6813654430 9.1758604098 6.4486306505  
H 17.5529229593 11.7793567346 3.8587682232  
H 16.7962388757 9.2269055481 3.2576433463  
H 19.7896751610 13.0800975676 4.0786129266  
H 20.2290499116 13.9315821275 5.5909664630  
H 18.5246206257 13.7573916908 5.1310825136  
H 17.3924163374 6.8201309322 4.5220683257  
H 19.1338456338 7.1295394818 4.0917454713  
H 18.6290306711 6.9142418950 5.8117331208  
Cl 21.9311889582 6.9274766801 7.1526154095  
N 11.0352822777 11.6643586221 3.9780821385  
N 10.0663536798 11.0855504701 2.1138486584  
C 12.0020228750 11.4110648314 5.0944375208  
C 10.6324900449 10.6207413347 3.2401178397  
C 10.7052236715 12.8312167583 3.3038314140  
C 10.1102320646 12.4665960621 2.1273619348  
C 12.0126443497 12.4108377649 6.2311182484  
C 9.3492908576 10.1984976982 1.2083682620  
H 11.7563892000 10.4073105379 5.4588711597  
H 12.9931591271 11.3719715066 4.6272645876  
H 10.8042251603 9.5457343704 3.4820842164  
H 10.9918882371 13.8052470100 3.6634238724  
H 9.6974078293 13.0738704071 1.3323826445  
H 12.2095419167 13.4364430874 5.8890238198  
H 12.8428865211 12.1333548545 6.8986685756  
H 11.0842674647 12.3858366111 6.8228316421  
H 9.5632724048 10.4422187361 0.1653124427  
H 9.6841694922 9.1755661196 1.4233066123  
H 8.2706586626 10.2749067662 1.3897653199  
Cl 10.1232646686 10.1932005256 -5.4898471317  
N 12.4241566158 5.5645087909 5.6328336772  
N 10.9598102213 3.9881652353 5.2540835323  
C 13.6257751384 6.3902922659 5.6465263137  
C 12.2168906285 4.3997607973 4.9764939581  
C 11.2613760746 5.9491166098 6.2317610216  
C 10.3682725406 4.9350542884 6.0558445807  
C 14.3904675521 6.1556229165 4.3574596051  
C 10.2918204700 2.7333732319 4.8839238901  
H 13.2899062891 7.4336443954 5.6863601003  
H 14.2096827539 6.1773382347 6.5556442231  
H 12.9470185874 3.8224038561 4.4340072662  
H 11.1592939518 6.8789083572 6.7672275148  
H 9.3375114574 4.8546636501 6.3620155408  
H 14.4542776648 5.0923855347 4.0983538009  
H 15.4203570004 6.5178156780 4.4626582794  
H 13.9006424690 6.6841429287 3.5274619886  
H 9.4204114494 2.6300396183 5.5571218108  
H 9.9210340634 2.7825059203 3.8469427933  
H 10.9710127721 1.8820603695 5.0557998726  
Cl 13.4519045989 1.9631362306 6.7320180707  
N 0.9703930998 22.1998170778 6.4655178626  
N 0.8876187991 20.2539659102 7.4683837165  
C 1.1914110606 23.6318189736 6.1741466226  
C 1.3403643232 21.5305454307 7.5744296593  
C 0.3583187472 21.3146942939 5.5979413935  
C 0.3027229689 20.1046299234 6.2161310725  
C 1.3003380633 23.9026591003 4.6869821001  
C 0.8171406749 19.2234817937 8.5150680483  
H 0.3456600615 24.1720003736 6.6213788751  
H 2.0889254793 23.9512314489 6.7221926081  
H 1.8580429286 21.9750746943 8.4273804147  
H -0.0374430158 21.5848770654 4.6316418741  
H -0.1618356589 19.1882520169 5.8816514664  
H 2.2834328745 23.6251340437 4.2876001668  
H 1.1910956315 24.9812768718 4.5111352114  
H 0.5146252321 23.4039200536 4.1073192415  
H -0.2281064210 18.9108615856 8.6261618279  
H 1.4360002179 18.3572749203 8.2461788615  
H 1.1538614281 19.6695274909 9.4573016621  
Cl 0.4933440520 22.8732440908 9.8642838222  
N 17.6571586633 1.8273367444 3.0980236454  
N 17.8578704352 1.0308139872 1.0829056675  
C 17.0747749030 2.1029530521 4.4220531772  
C 17.0321472536 1.1603888334 2.1296312134  
C 18.9538189031 2.0907382960 2.6678979032  
C 19.0944221393 1.5814292238 1.3973524806  
C 17.8831644535 1.5209021531 5.5710427669  
C 17.4078051011 0.2606108129 -0.0756329769  
H 16.9716422280 3.1950933561 4.5187989580  
H 16.0651865768 1.6819444851 4.4184538238  
H 16.0490586277 0.7166391996 2.1890175748  
H 19.6833981967 2.5735816149 3.3079020995  
H 19.9542895925 1.5533420195 0.7043392849  
H 18.0821991108 0.4573128828 5.3668431036  
H 17.3099975342 1.6290201520 6.5030626699  
H 18.8353443737 2.0556153397 5.7018669299  
H 16.3154486534 0.3530800720 -0.1347692748  
H 17.8293476351 0.6783447668 -0.9906093308  
H 17.7032329795 -0.7861183811 0.0678839650  
Cl 21.7323270834 1.1983486112 -0.4870088147  
N 15.0424970421 18.8623072834 3.1904298109  
N 15.8509340246 20.1932417268 1.6714570614  
C 14.2171727774 17.8150895174 3.8291322017  
C 15.0388149262 19.1459283434 1.8792372930  
C 15.8765728744 19.7567078207 3.8389176905  
C 16.3898102655 20.5892388297 2.8901695759  
C 14.9893344540 16.9908155166 4.8608515719  
C 16.1727863140 20.6805953779 0.3322923322  
H 13.3758785061 18.3410700668 4.2956727613  
H 13.8257702423 17.1783644985 3.0278269094  
H 14.4685733397 18.6319741393 1.1200602547  
H 16.0028029773 19.7644618231 4.9164199851  
H 16.9685485159 21.5149262839 2.9798359887  
H 15.7334341318 16.3379466840 4.3956378010  
H 14.2670058558 16.3643890869 5.3970355994  
H 15.4660150229 17.6304507284 5.6137582348  
H 16.6665877303 19.8856519591 -0.2438580737  
H 15.2506683476 20.9777178380 -0.1711541241  
H 16.8386630281 21.5490762888 0.4084532979  
Cl 13.2485450452 14.5288853364 2.4029412764  
N 13.9307266471 8.0493961223 -0.7387534627  
N 14.2051900050 6.2355294132 -1.9148481450  
C 13.2710204277 9.1610556232 -0.0309416503  
C 13.3158086660 7.1680732850 -1.5342873738  
C 15.2379323723 7.6403279331 -0.5645306197  
C 15.4149117802 6.5015708099 -1.3034860861  
C 13.1766305033 8.7685911069 1.4439049495  
C 13.9446922426 5.2810125166 -2.9834619967  
H 13.8684329238 10.0691716774 -0.1872399656  
H 12.3013429934 9.3192663960 -0.5206187621  
H 12.2819466774 7.2329657480 -1.8585082488  
H 15.9557433337 8.2101128853 0.0120256172  
H 16.3017694625 5.8979052756 -1.4622405485  
H 12.3570991342 8.0632264257 1.6194176228  
H 13.0311029921 9.6447003819 2.0845328273  
H 14.1073340290 8.2837358199 1.7611853841  
H 14.3893518313 5.6346931261 -3.9238692009  
H 14.4009925472 4.3424849905 -2.6939050048  
H 12.8639483013 5.1467230264 -3.1097974988  
Cl 11.0696771732 7.6925943361 4.0246507421  
N 22.4142876673 13.9359327974 2.2377764013  
N 22.8794297242 15.3839743893 3.8139812163  
C 22.1015701554 13.3047938348 0.9458688821  
C 22.6713467948 15.2447485906 2.4892983578  
C 22.4524683173 13.2451749394 3.4282161988  
C 22.8000477389 14.1365217629 4.4098082788  
C 20.6003910003 13.1757085354 0.5520164199  
C 22.9121634408 16.6441637687 4.5473836348  
H 22.6985679017 13.8407633490 0.1993310432  
H 22.5619465999 12.3134641249 1.0388340015  
H 22.7018637850 16.0602406397 1.7824249775  
H 22.3031853922 12.1695991371 3.4276730821  
H 22.9417108173 14.0030826332 5.4774521882  
H 20.2751097959 12.1326900934 0.6361030914  
H 20.4555076745 13.4859992230 -0.4908426825  
H 19.9427134789 13.8152010211 1.1558478501  
H 23.6378373142 16.5544677535 5.3592115331  
H 23.2107565914 17.4696659141 3.8950223273  
H 21.9204845820 16.8780643547 4.9616580908  
Cl 25.4480945626 19.2735676088 2.4526751632  
N 21.8783356225 24.2152275327 5.3257476918  
N 21.8506075659 23.0476372072 7.1573431889  
C 21.5986416375 24.7117941300 3.9446809591  
C 21.4084377172 23.0966552061 5.8920948042  
C 22.6485702937 24.8843108921 6.2711857362  
C 22.6367777761 24.1519421334 7.4229624847  
C 22.0714079355 23.9924760739 2.6648429183  
C 21.6066944776 21.9329398654 8.0728406553  
H 20.5031550885 24.7944760673 3.8752539910  
H 22.0210092550 25.7248626776 3.9648670026  
H 20.8969915298 22.2766158505 5.3819476381  
H 23.0860375738 25.8530034222 6.0606769213  
H 23.1257305375 24.2831039166 8.3852996311  
H 22.0235946029 24.7527375200 1.8636637045  
H 21.3513935447 23.2127321480 2.3960962053  
H 23.0885970028 23.5752073784 2.6728803413  
H 22.5761920825 21.4971568620 8.3608273879  
H 21.0943733898 22.3135649423 8.9673386628  
H 21.0120755870 21.1941764571 7.5225499447  
Cl 18.2992851900 23.5561613537 3.0454393241  
N 6.6638816047 9.3540870689 6.6591705268  
N 6.1494561568 11.3178601904 5.8617614629  
C 6.8717891892 7.8825199735 6.7538761924  
C 5.8640145930 9.9852974409 5.7298633588  
C 7.3770528775 10.2963656776 7.3938274471  
C 7.0717700889 11.5205985461 6.8690057978  
C 7.4944936423 7.1362623830 5.5771627172  
C 5.6753652694 12.4251026118 5.0215495030  
H 7.4400707332 7.7107663388 7.6767837942  
H 5.8789193149 7.4472397113 6.9026895811  
H 5.5195498305 13.3673290560 0.0189164172  
H 8.0906867489 10.0061505577 8.1587965912  
H 7.3877213035 12.5222617567 7.1368333945  
H 6.9902373926 7.3944296873 4.6374151552  
H 7.2884910904 6.0707890800 5.7665936053  
H 8.5794611570 7.2872793426 5.4555998662  
H 5.5663524310 12.0775183600 3.9895023849  
H 4.7167371792 12.8073672713 5.3758204067  
H 6.4314409165 13.2200043554 5.0623151718  
Cl 6.6117101860 13.4188685787 0.6201957708  
N 24.5379149150 4.5459898876 0.7070251370  
N 25.6091508642 5.2171055091 -1.0693023918  
C 24.1156273125 4.3404155465 2.1069070106  
C 25.5000898133 5.3653503530 0.2675043820  
C 23.9496518353 3.9225436314 -0.3780665225  
C 24.6201162386 4.3387842321 -1.4875791495  
C 22.6681823350 3.8696027274 2.2686267299  
C 26.7204459940 5.7589338030 -1.8510292749  
H 24.8222664669 3.6222346599 2.5463401395  
H 24.2503826764 5.3101619211 2.6042999409  
H 26.0481323725 6.0648106665 0.8780542582  
H 23.1486716880 3.1763179580 -0.2851313952  
H 24.5581854362 4.0031380720 -2.5148596340  
H 21.9852583460 4.2809488070 1.5163653846  
H 22.3072093271 4.2306770611 3.2428623166  
H 22.5895607756 2.7752591773 2.2502965747  
H 26.3669205325 6.1707017425 -2.8063794119  
H 27.2030827335 6.5615159221 -1.2779246283  
H 27.4418051592 4.9506327751 -2.0362480287  
Cl 19.7381365362 4.9248888352 -0.9819969517  
N 19.2287886113 19.3095909021 2.7067783080  
N 19.9109369195 20.3557680763 0.8801968899  
C 18.8736631231 19.0048693082 4.1444121649  
C 19.4295017668 20.5281429696 2.1457767588  
C 19.7028241848 18.3504506149 1.8103834883  
C 20.1163811561 19.0053811779 0.6867964698  
C 18.7446337625 20.2039453497 5.0735525169  
C 20.4568090810 21.3226410035 -0.1043854360  
H 17.9828207541 18.3634648953 4.1034101372  
H 19.7255212407 18.4192002216 4.5173926425  
H 19.2139176517 21.5105345159 2.5888813700  
H 19.6766295345 17.2896518688 2.0265531005  
H 20.5234985615 18.6184833661 -0.2393412954  
H 19.7614421803 20.4820070936 5.3684277263  
H 18.1857366324 19.8701364293 5.9632129626  
H 18.2409039482 21.0812249348 4.6538719430  
H 21.1143829622 20.7610629378 -0.7775621633  
H 19.6535120454 21.8149344032 -0.6642843931  
H 21.0589576650 22.0822543670 0.4003891067  
Cl 21.9518613743 19.8154883346 4.9534455479  
N 24.6638724125 11.9503212650 11.8732627456  
N 24.9006765686 11.3205814281 9.7987541051  
C 24.8749738769 12.6152284395 13.1797750856  
C 25.1279559537 12.3208133311 10.6696436499  
C 24.1334988425 10.6763897953 11.7688883460  
C 24.2692350520 10.2809423083 10.4708677427  
C 24.8766358842 14.1280834153 13.0707555454  
C 25.0887410788 11.4633031049 8.3409167757  
H 24.0612646729 12.2616107845 13.8244911778  
H 25.8258519493 12.2384685139 13.5768098436  
H 25.6121399605 13.2497142427 10.4197589139  
H 23.7661903239 10.1456612231 12.6403784864  
H 23.9550304838 9.3785143681 9.9616860603  
H 25.6694704157 14.4909898081 12.3990401166  
H 25.0700210554 14.5581358140 14.0599743671  
H 23.9027486359 14.5027876975 12.7276065163  
H 24.1780771834 11.8836715975 7.9111110431  
H 25.9501562315 12.1248685474 8.1741533228  
H 25.2883925446 10.4783601338 7.9041430789  
Cl 22.9592807683 7.3586597307 0.4061862207  
N 7.5930360238 17.1247063845 4.7253355525  
N 5.5397358267 17.7283826118 5.1365670554  
C 9.0465825318 17.0203571456 5.0118241162  
C 6.8188567479 17.8635978317 5.5190973554  
C 6.7787814906 16.4239015679 3.8346773119  
C 5.4956141405 16.8360519137 4.0625578327  
C 9.5315270873 15.6021471226 4.7646743001  
C 4.4893152457 18.5138379181 5.7721859131  
H 9.5733405210 17.7320240086 4.3571496535  
H 9.1791382951 17.3198288177 6.0561170255  
H 7.1528234803 18.4851263848 6.3416146275  
H 7.1459881319 15.7645983810 3.0613417657  
H 4.5691448662 16.5294710555 3.5908816617  
H 9.1272200155 15.2279125212 3.8081544026  
H 9.3029679508 14.9135683972 5.5911960607  
H 10.6205565254 15.6461922457 4.6259093474  
H 4.9683854376 19.4121449603 6.1849134216  
H 3.7311467990 18.8133886050 5.0432553234  
H 4.0364105092 17.9445156348 6.5935731412  
Cl 4.2836944307 14.7437356741 6.8201689304  
N 5.2987508228 22.2647063898 3.2127849346  
N 6.7573027658 23.5709140661 4.1848703286  
C 4.3999180809 21.6948087648 2.1696775989  
C 6.1745308926 23.2641961222 3.0054617285  
C 5.3464677979 21.9226320558 4.5445312605  
C 6.2745019150 22.7194098462 5.1502423327  
C 3.0414791762 21.2298512408 2.6804894096  
C 7.6741384981 24.6475451017 4.5632709278  
H 4.2598556412 22.4959772579 1.4319286072  
H 4.9291535268 20.8676260845 1.6656579514  
H 6.3629505795 23.7270919985 2.0409760016  
H 4.7221732139 21.1425595673 4.9487181316  
H 6.5983210798 22.7705510266 6.1836493618  
H 3.0769975805 20.4785704765 3.4893005188  
H 2.5250406047 20.7555468120 1.8418876655  
H 2.4195659025 22.0710481107 3.0027590563  
H 8.3107475953 24.9278227615 3.7220237057  
H 7.0811310199 25.5272067229 4.8434482472  
H 8.2749738034 24.3081577683 5.4192945128  
Cl 6.0325064515 19.2218757254 -0.2280033096  
N 2.2717828327 2.1214625272 9.7352722633  
N 1.8955354601 3.7167457200 8.2814577074  
C 3.0832456606 1.1820408396 10.5892895261  
C 2.8559164944 3.0233059334 8.9153562391  
C 0.8943884552 2.2197380815 9.6007449749  
C 0.6688904519 3.2029488803 8.6598361413  
C 4.1006135270 0.3218331770 9.8190805906  
C 2.0255651304 4.7421318658 7.2368393084  
H 3.5505415124 1.8223873971 11.3485886825  
H 2.3573356650 0.5180636686 11.0952127366  
H 3.9262695007 3.1932480929 8.8171670575  
H 0.2285283890 1.5598333678 10.1409025393  
H -0.2399398336 3.6504021685 8.2692923081  
H 4.5375723985 0.8450317321 8.9561011807  
H 3.6202667693 -0.6089762269 9.4821811702  
H 4.9146055605 0.0495394392 10.5048041325  
H 3.0722517738 5.0371355067 7.0912078673  
H 1.6285965914 4.3380887739 6.2969902823  
H 1.4452954938 5.6214803371 7.5379213170  
Cl 1.9060736037 2.2332936911 3.1424107759  
C 16.7254886971 7.6612617472 8.5386220603  
C 17.0150575284 12.2456668096 8.4763248765  
C 14.2131702538 15.5922042799 8.3294066678  
C 10.2703319266 17.3685142659 8.3605087870  
C 6.2980804329 16.0198220071 8.2914756589  
C 3.8593566391 12.3584503810 8.3440356710  
C 3.9841479789 7.9910740966 8.3831011627  
C 6.2864150370 4.3591971945 8.3437500604  
C 10.0830459250 2.0437324076 8.4012821212  
C 14.3501184416 2.4953209648 8.1663954907  
C 18.4189760371 4.2507409429 8.4028035528  
C 21.1184855748 7.8833287118 8.3443608373  
C 20.9739212791 12.2493073830 8.4931321051  
C 18.8077304588 16.0940331539 8.2583879855  
C 15.6403005298 18.8941664263 8.2996806562  
C 12.0021229308 21.0785983040 8.1087828989  
C 17.2972313040 8.9106405816 8.4086044005  
C 16.4020490027 13.3433116775 8.3877637421  
C 13.2756778225 16.4172095166 8.2962464554  
C 9.0575900651 17.2056321099 8.3684524111  
C 5.3275063427 15.0804853961 8.3190829208  
C 3.6534545713 11.1438476278 8.3313882011  
C 4.4481473371 6.8221360214 8.2840631416  
C 7.2882503568 3.6068361770 8.4141676004  
C 11.3306029444 1.9288367679 8.4236098536  
C 15.6100805582 3.0313204009 8.1858599973  
C 19.2757385804 5.1316076784 8.4169576509  
C 21.1390596425 9.2215208414 8.2112636654  
C 20.5687040103 13.4360491506 8.4300289715  
C 17.8762918490 16.9320570466 8.3455657615  
C 14.5300148431 19.4524483348 8.3340925514  
C 10.6890641071 21.5448782617 8.1706618853  
C 17.2847137180 9.9426067226 9.3747857790  
C 15.7161531905 13.9235361614 9.4710752854  
C 12.5298066512 16.7893618777 9.4197528581  
C 8.2355023477 16.9481886799 9.4650447588  
C 4.8440591967 14.3939637605 9.4648827242  
C 3.7049975116 10.2678097292 9.4274908458  
C 4.8896994200 6.1633304209 9.4386968344  
C 8.0721502674 3.1929391399 9.4658875245  
C 12.2315837731 2.0461059868 9.4768550967  
C 16.2687067860 3.2216034305 9.4134879350  
C 19.7806006175 5.9048012893 9.4352081555  
C 20.9803467363 9.9163671186 9.4528669993  
C 20.0681785819 14.1882243408 9.4715955190  
C 17.2752764522 17.4797053826 9.4842952860  
C 13.7702097955 19.9185838125 9.4125141811  
C 9.9964677370 21.9220270922 9.4439772175  
C 17.0986870459 11.2732775242 9.4763548619  
C 14.8074446369 14.9799947572 9.4292750503  
C 11.1823947222 17.1902046240 9.4425781137  
C 6.9491788119 16.3398836082 9.4930158459  
C 4.1405978440 13.1640066337 9.4714402645  
C 3.8290357679 8.8604710359 9.4338597088  
C 5.7437820281 5.0234904714 9.4547945637  
C 9.3398499520 2.5644350693 9.4642692997  
C 13.6517792232 2.2733862195 9.4208897209  
C 17.5628581598 3.8787095717 9.4337084467  
C 20.4268507526 7.1406237583 9.4193501783  
C 20.9054088647 11.3110173979 9.4718293806  
C 19.3030056263 15.3918432202 9.4511810710  
C 16.1935654558 18.3960331279 9.4957434814  
C 12.4668100894 20.5747499532 9.4336667232  
C 8.2803449984 22.7043411072 13.2642098629  
C 16.9037107596 7.8864590272 9.9102843596  
C 16.6453453453 11.9377898571 10.7111293643   0 0 0
C 14.2415203553 15.4404598271 10.6846043643   0 0 0
C 10.4073453853 17.1519998171 10.6854393643   0 0 0
C 6.4143504153 15.8864048271 10.6863193643   0 0 0
C 4.0578854353 12.3890098571 10.6850343643   0 0 0
C 4.0797504353 8.1682248871 10.6851043643   0 0 0
C 6.3441854153 4.5955599071 10.6846743643   0 0 0
C 10.0672803953 2.5772699271 10.6851643643   0 0 0
C 14.3065653553 2.5532749271 10.6859293643   0 0 0
C 18.1337853353 4.3778999071 10.6850493643   0 0 0
C 20.5600003153 7.8291448871 10.6840293643   0 0 0
C 20.5994953153 12.0458148571 10.6821943643   0 0 0
C 18.6653053253 15.8275648271 10.6844243643   0 0 0
C 15.5915953553 18.7751748071 10.6900343643   0 0 0
C 11.8840853753 20.9544347871 10.6768193643   0 0 0
C 17.1281853353 9.0913948771 10.4996993643   0 0 0
C 16.0250153453 13.2252098471 10.7011843643   0 0 0
C 13.0955303653 16.2811048271 10.6843043643   0 0 0
C 8.9853253953 17.0677348171 10.6860593643   0 0 0
C 5.3926654253 14.8930248371 10.6859143643   0 0 0
C 3.7859304353 10.9903898671 10.6854293643   0 0 0
C 4.6186954253 6.8492498971 10.6844143643   0 0 0
C 7.4655404053 3.7170849171 10.6850643643   0 0 0
C 11.4730653753 2.3476649271 10.6855393643   0 0 0
C 15.6704853453 2.9646849271 10.6855643643   0 0 0
C 19.1590353253 5.3668699071 10.6845793643   0 0 0
C 20.8543453153 9.2228648771 10.6832643643   0 0 0
C 20.1215803153 13.3877248471 10.6826093643   0 0 0
C 17.7399553353 16.9104748171 10.6855643643   0 0 0
C 14.4037003553 19.5645947971 10.6933843643   0 0 0
C 10.5930603853 21.6120847871 10.6436593643   0 0 0
C 17.0031103353 9.6538348771 11.9183143543   0 0 0
C 15.6189703453 13.8264648471 11.9192343543   0 0 0
C 12.4645653753 16.6104098271 11.9194843543   0 0 0
C 8.2946104053 16.8896048171 11.9207943543   0 0 0
C 4.9646104253 14.3207848371 11.9196143543   0 0 0
C 3.7581554353 10.2774698671 11.9197193543   0 0 0
C 4.9758154253 6.2319148971 11.9187643543   0 0 0
C 8.0784404053 3.3514699171 11.9188693543   0 0 0
C 12.1851353753 2.3183749271 11.9199943543   0 0 0
C 16.3255803453 3.2455849171 11.9197243543   0 0 0
C 19.5959753253 5.9286498971 11.9192093543   0 0 0
C 20.8861453153 9.9340598671 11.9177543543   0 0 0
C 19.8115503153 14.0282698371 11.9176143543   0 0 0
C 17.2369853353 17.4126448171 11.9206443543   0 0 0
C 13.7702003653 19.9328997971 11.9209243543   0 0 0
C 9.9130453953 21.9200947871 11.9185293543   0 0 0
C 16.8008353453 11.1373448671 11.9188393543   0 0 0
C 14.7443353553 14.9423998371 11.9196643543   0 0 0
C 11.1134753853 17.0540648171 11.9200293543   0 0 0
C 7.0006604153 16.2940098271 11.9208443543   0 0 0
C 4.2951854353 13.0629448471 11.9189393543   0 0 0
C 3.9047154353 8.8602048771 11.9190943543   0 0 0
C 5.8425654253 5.1018699071 11.9190643543   0 0 0
C 9.3829153953 2.7791699271 11.9189543543   0 0 0
C 13.6058103653 2.4231699271 11.9202643543   0 0 0
C 17.5614503353 3.9531849171 11.9193693543   0 0 0
C 20.3009903153 7.1658448871 11.9188043543   0 0 0
C 20.7548003153 11.3517498571 11.9171343543   0 0 0
C 19.0808703253 15.2497498371 11.9187593543   0 0 0
C 16.1611553453 18.3432398071 11.9212193543   0 0 0
C 12.5113453753 20.6202297971 11.9202993543   0 0 0
C 8.6783504053 22.4462247771 11.9129493543   0 0 0
C 17.4993856412 8.5480258536 14.3260169899  
C 16.6679084954 11.9189965676 13.1729397742  
C 14.3370605433 15.5817594077 13.1358282826  
C 10.4108098409 17.2747412025 13.1887691859  
C 6.3675285764 15.9500927979 13.1807735291  
C 3.8977817917 12.4323148690 13.1444078949  
C 3.9556286563 8.1120275009 13.1551115368  
C 6.2635006669 4.4772192066 13.1509724551  
C 10.0699947633 2.5088542183 13.1677538399  
C 14.4287138703 2.3390221681 13.1252162738  
C 18.2526847044 4.3056735220 13.1316443988  
C 20.6114933550 7.7867896247 13.1859312515  
C 20.6129044783 12.0658826044 13.1542909407  
C 18.8123370686 15.9535517997 13.1274850254  
C 15.7348090944 18.9816142194 13.1521686313  
C 11.7702335155 20.9229742228 13.1661665916  
C 17.2607623934 9.0429851870 13.1283169700  
C 16.1297378104 13.2600754766 13.1528758116  
C 13.2178470825 16.4774977872 13.1415930575  
C 8.9999285110 17.0997483585 13.1736007927  
C 5.2834639716 15.0447288034 13.1518237667  
C 3.5917725451 11.0465915118 13.1478876193  
C 4.5550239803 6.8105230202 13.1663503779  
C 7.3724053819 3.6102406421 13.1524329741  
C 11.4266714097 2.2116584605 13.1818023416  
C 15.7625450541 2.7622568216 13.1366872839  
C 19.2416087904 5.3086136205 13.1838863414  
C 20.8982330671 9.2317036122 13.1768862362  
C 20.2416405251 13.3981828617 13.1619764858  
C 17.9017924610 16.9912820331 13.1692608577  
C 14.5748603644 19.7089200745 13.1585371776  
C 10.4858547924 21.5363877515 13.2238683898  
C 17.2460217538 9.9421888504 14.4635046411  
C 15.7742469760 14.0353456926 14.2607393983  
C 12.5263546899 17.0094731803 14.2268611886  
C 8.1979397141 16.8697721769 14.2772854710  
C 4.5857513933 14.4301923653 14.1578749531  
C 3.3747227195 10.1563367046 14.1836477052  
C 4.9230785935 6.0340417970 14.2657661403  
C 8.1224679446 3.1391555933 14.2287336829  
C 12.3014716779 1.9935435718 14.2497563171  
C 16.6345496734 2.9731983849 14.2297394502  
C 19.7874832168 5.9174737402 14.3748170394  
C 20.8952535610 9.9950035681 14.4046545563  
C 19.9802229943 14.2713572390 14.2281678733  
C 17.3703768136 17.7152790890 14.2004305578  
C 13.8417462860 20.2302741116 14.2491533975  
C 9.6923098938 22.0110658821 14.1483856318  
C 16.9344272368 11.1919227177 14.3476047958  
C 15.0179915420 15.0246362803 14.2226354366  
C 11.3401684939 17.3498201120 14.1910311695  
C 7.0635969392 16.3711372972 14.2872282169  
C 4.0514906669 13.3059222357 14.2194824580  
C 3.5446494605 8.9308410881 14.2113479024  
C 5.6498378463 5.0267113108 14.2529095052  
C 9.2701888361 2.6859996897 14.3177111118  
C 13.5358144668 2.0705213846 14.1582290863  
C 17.7086942591 3.5946055331 14.1618904555  
C 20.4225942452 7.1315548499 14.4220978698  
C 20.7253499111 11.2389557687 14.3115894745  
C 19.3491405135 15.3441713253 14.2600896339  
C 16.4338450473 18.5192182381 14.2166636795  
C 12.6700755649 20.6436609814 14.2515806739  
C 8.5501738418 22.5939411579 14.6195566738  

