&CONTROL
    calculation = 'scf',
    restart_mode = 'from_scratch',
    prefix = 'NaCl-N^Cl',
    pseudo_dir = '/home/adiaz/pseudo/',
    outdir = '.',
    tstress = .true.,
    tprnfor = .true.,
/
&SYSTEM
    ibrav = 0,
    nat = 17,
    ntyp = 2,
    ecutwfc = 60.0,
    ecutrho = 323.0,
    occupations = 'smearing',
    smearing = 'mp',
    degauss = 0.02,
    nosym = .true.,
/
&ELECTRONS
    conv_thr = 1.0d-8,
    mixing_beta = 0.7,
    electron_maxstep = 200,
/
&IONS
/
&CELL
/
ATOMIC_SPECIES
    Na  22.990   Na.pbe-spn-kjpaw_psl.1.0.0.UPF
    Cl  35.453   Cl.pbe-n-kjpaw_psl.1.0.0.UPF
CELL_PARAMETERS (angstrom)
    8.48956137423857 	0.0 			0.0 
    4.285280687119286 	7.396938228349534  	0.0 
    0.0 		0.0 			26.196152422706632
ATOMIC_POSITIONS (crystal)
Na       0.00000000       0.00000000      10.00000000
Cl       4.24264069       2.44948974      11.73205081
Na       2.12132034       1.22474487      13.46410162
Cl       2.12132034       3.67423461      15.19615242
Na       2.12132034       3.67423461      10.00000000
Cl       6.36396103       6.12372436      11.73205081
Na       4.24264069       4.89897949      13.46410162
Cl       4.24264069       7.34846923      15.19615242
Na       4.24264069       0.00000000      10.00000000
Cl       8.48528137       2.44948974      11.73205081
Na       6.36396103       1.22474487      13.46410162
Cl       6.36396103       3.67423461      15.19615242
Na       6.36396103       3.67423461      10.00000000
Cl      10.60660172       6.12372436      11.73205081
Na       8.48528137       4.89897949      13.46410162
Cl       8.48528137       7.34846923      15.19615242
Cl       2.12132034       3.67423461      20.19615242
   
K_POINTS automatic
    3 3 1 0 0 0

