&CONTROL
   calculation      = 'relax'
   tstress          = .true.
   tprnfor          = .true.
   outdir           = '.'
   prefix           = 'NaCl-Cl^Cl'
   pseudo_dir       = '../../pseudo/'
/
&SYSTEM
   ibrav            = 0
   ecutwfc          = 65
   ecutrho          = 520
   occupations      = 'smearing'
   degauss          = 0.02
   smearing         = 'mp'
   ntyp             = 2
   nat              = 17
/
&ELECTRONS
   electron_maxstep = 200
   conv_thr         = 1e-06
   mixing_beta      = 0.7
/
&IONS
/
&CELL
/
&FCP
/
&RISM
/
ATOMIC_SPECIES
Na 22.98976928 Na.pbe-spn-kjpaw_psl.1.0.0.UPF
Cl 35.45 Cl.pbe-n-kjpaw_psl.1.0.0.UPF

K_POINTS automatic
8 8 8  0 0 0

CELL_PARAMETERS angstrom
8.48528137423857 0.00000000000000 0.00000000000000
4.24264068711929 7.34846922834953 0.00000000000000
0.00000000000000 0.00000000000000 26.19615242270663

ATOMIC_POSITIONS angstrom
Na 0.0000000000 0.0000000000 10.0000000000  
Cl 4.2426406871 2.4494897428 11.7320508076  
Na 2.1213203436 1.2247448714 13.4641016151  
Cl 4.2426406871 0.0000000000 15.1961524227  
Na 2.1213203436 3.6742346142 10.0000000000  
Cl 6.3639610307 6.1237243570 11.7320508076  
Na 4.2426406871 4.8989794856 13.4641016151  
Cl 6.3639610307 3.6742346142 15.1961524227  
Na 4.2426406871 0.0000000000 10.0000000000  
Cl 8.4852813742 2.4494897428 11.7320508076  
Na 6.3639610307 1.2247448714 13.4641016151  
Cl 8.4852813742 0.0000000000 15.1961524227  
Na 6.3639610307 3.6742346142 10.0000000000  
Cl 10.6066017178 6.1237243570 11.7320508076  
Na 8.4852813742 4.8989794856 13.4641016151  
Cl 10.6066017178 3.6742346142 15.1961524227  
Cl 4.2426406871 0.0000000000 16.1961524227  

