&CONTROL
   calculation      = 'relax'
   tstress          = .true.
   tprnfor          = .true.
   outdir           = '.'
   prefix           = 'graphene_h_over_c'
   pseudo_dir       = '/home/ebarquero/practicas/p2/pseudo/'
/
&SYSTEM
   ecutwfc          = 60
   ecutrho          = 600
   occupations      = 'smearing'
   degauss          = 0.02
   smearing         = 'mp'
   k_points         = 'automatic'
   k_spacing        = [3, 3, 3, 0, 0, 0]
   ntyp             = 2
   nat              = 19
   ibrav            = 0
/
&ELECTRONS
   conv_thr         = 1e-06
/
&IONS
/
&CELL
/
&FCP
/
&RISM
/
ATOMIC_SPECIES
C 12.011 C.pbe-n-kjpaw_psl.1.0.0.UPF
H 1.008 H.pbe-kjpaw_psl.1.0.0.UPF

K_POINTS gamma

CELL_PARAMETERS angstrom
7.38000000000000 0.00000000000000 0.00000000000000
-3.69000000000000 6.39126747992916 0.00000000000000
0.00000000000000 0.00000000000000 0.00000000000000

ATOMIC_POSITIONS angstrom
C 0.0000000000 0.0000000000 0.0000000000  
C 1.2300000000 0.7101408311 0.0000000000  
C -1.2300000000 2.1304224933 0.0000000000  
C 0.0000000000 2.8405633244 0.0000000000  
C -2.4600000000 4.2608449866 0.0000000000  
C -1.2300000000 4.9709858177 0.0000000000  
C 2.4600000000 0.0000000000 0.0000000000  
C 3.6900000000 0.7101408311 0.0000000000  
C 1.2300000000 2.1304224933 0.0000000000  
C 2.4600000000 2.8405633244 0.0000000000  
C 0.0000000000 4.2608449866 0.0000000000  
C 1.2300000000 4.9709858177 0.0000000000  
C 4.9200000000 0.0000000000 0.0000000000  
C 6.1500000000 0.7101408311 0.0000000000  
C 3.6900000000 2.1304224933 0.0000000000  
C 4.9200000000 2.8405633244 0.0000000000  
C 2.4600000000 4.2608449866 0.0000000000  
C 3.6900000000 4.9709858177 0.0000000000  
H 0.0000000000 0.0000000000 1.1000000000  

