&CONTROL
    calculation = 'scf'
    restart_mode = 'from_scratch'
    prefix='ns',
    nstep=2000,
    pseudo_dir = '/home/elmer.barquero/carbon_nn/pseudo',
    outdir= '.',
    max_seconds=86000
/
&SYSTEM
    ntyp = 5
    nat = 579
   ibrav            = 0
   occupations='smearing', smearing='mp', degauss=0.02,
   vdw_corr='dft-d3'

/
&ELECTRONS
!   diagonalization  = 'cg'
   mixing_mode      = 'local-TF'
   mixing_beta      = 0.2
!   mixing_ndim      = 8
   conv_thr         = 1.0D-4
   electron_maxstep = 500
/

ATOMIC_SPECIES
Al 26.9815385 Al.pbe-n-kjpaw_psl.1.0.0.UPF
C 12.011 C.pbe-n-kjpaw_psl.1.0.0.UPF 
Cl 35.45 Cl.pbe-n-kjpaw_psl.1.0.0.UPF
H 1.008 H.pbe-kjpaw_psl.1.0.0.UPF 
N 14.007 N.pbe-n-kjpaw_psl.1.0.0.UPF 

K_POINTS gamma

CELL_PARAMETERS angstrom
25.00000000000000 0.00000000000000 0.00000000000000
0.00000000000000 25.00000000000000 0.00000000000000
0.00000000000000 0.00000000000000 16.80000000000000

ATOMIC_POSITIONS angstrom
Cl 21.9640685278 8.3053501917 4.0925154377
Cl 19.6975114034 8.8231229824 1.4542477971
Cl 23.2805147894 10.0660838790 2.0491587008
Al 21.7605381107 8.4295945412 1.9535789398
Cl 15.0586017934 12.9366930408 4.3177376129
Cl 17.5436323169 15.1488402019 2.7045906315
Cl 16.4742759293 12.1274249277 1.1018025690
Al 15.8216594563 13.8095133148 2.3813527881
Cl 4.3820577202 2.1211776227 5.1265899570
Cl 4.5321438095 1.0117875164 2.0827910606
Cl 5.1572047271 4.9741355831 2.5323610523
Al 4.0487463869 3.2181273807 3.1103590097
Cl 2.7749805449 11.6618683309 4.1688334224
Cl 4.1998718856 8.7637581435 2.9883502898
Cl 3.0050015290 8.8672082797 6.3775716400
Al 3.9674858193 9.9885786051 4.7328987999
Cl 4.1606794850 2.7719001683 -0.9408739659
Cl 4.8527157347 -0.7910390716 -1.0587569876
Cl 1.5882179000 0.3833648796 -0.0419758781
Al 3.7266303553 0.8148698637 -0.1206110567
Cl 6.3039599674 21.3903386311 9.6704677338
Cl 10.0905482691 21.3853669217 6.6055182709
Cl 8.2859229726 24.3863522566 8.4745258451
Al 8.0174317100 22.5880467062 9.5918767035
Cl 23.7002659775 18.9759151980 -1.1185171772
Cl 27.1638345460 18.2869615612 -0.5424454190
Cl 25.5290909869 12.9683001328 0.3507567960
Al 25.1967174783 18.2833120026 0.2733543006
Cl 8.3227761474 16.9617349602 0.8774122432
Cl 9.7389323144 20.0010731203 -0.2872834987
Cl 7.1317398298 19.8668597405 2.5354177410
Al 7.8636261925 18.9644289758 0.7278478385
Cl 10.4957104109 20.0492439390 2.9547361495
Cl 12.9130164513 18.8213402303 0.6695659457
Cl 12.4119689432 22.1091183548 0.2944936631
Al 11.5464772015 20.3206822570 1.0731508806
Cl -0.4459955678 16.1383534543 0.7337613831
Cl 1.8156834578 14.6720973874 3.3156059406
Cl 3.2864105462 14.8409169716 0.1569596720
Al 1.4641715817 14.6605949750 1.1935012092
Cl 13.2073709717 11.4968981430 -3.0642755052
Cl 10.7778228379 8.8279529021 -2.3549524919
Al 11.6919328515 10.2023593005 -3.7661411913
Cl 13.6311751357 24.3298887030 8.9591867812
Cl 14.5411600193 22.8343231020 5.6458633298
Cl 11.6459133481 24.5996827759 6.0409235150
Al 13.0420575326 23.1802832329 7.1708594499
N 10.3937021496 4.8496020550 1.6376311682
N 11.1520539831 2.9991039013 0.7532774680
C 9.3693947822 5.8075320744 2.1209935340
C 10.1319163569 3.8730836292 0.7558125865
C 11.5780355596 4.5279280747 2.3047532434
C 12.0494374962 3.3713106563 1.7497400006
C 8.3680918258 6.2335740048 1.0568666743
C 10.9741545279 1.7093600687 0.0795508262
H 8.8495602954 5.2829288433 2.9358535530
H 9.9232387735 6.6582573758 2.5492131830
H 9.2701257900 3.7963283221 0.1157534245
H 11.9571147309 5.2002675513 3.0721484877
H 12.9421649634 2.7952943435 1.9529700165
H 8.8596180402 6.8246860844 0.2672623105
H 7.5928257675 6.8592218792 1.5192080427
H 7.8432238114 5.3825511721 0.6034537683
H 10.2602170365 1.1111100262 0.6561013730
H 10.5366743939 1.8905587970 -0.9098852467
H 11.9341501313 1.1945732296 -0.0284018774
Cl 8.1363003603 2.4015774004 2.1118464388
N 18.6504404890 10.6093596207 5.1511477323
N 18.4500577784 8.4952550604 4.8102523999
C 19.2404819169 11.8461360589 5.6581581967
C 19.0749162282 9.4038463404 5.5698452830
C 17.7446656418 10.4612841650 4.1238363321
C 17.6006664928 9.1259347148 3.9241342144
C 18.6512189741 13.0791707926 5.0337622834
C 18.4173774181 7.0601006966 5.0371889546
H 19.0839832121 11.8480705074 6.7402925400
H 20.3218528690 11.7893601920 5.4742646088
H 19.8508771377 9.2196735806 6.3216511768
H 17.2424093480 11.2875783611 3.6414329221
H 16.9766904986 8.5737749975 3.2311180383
H 18.9374274211 13.1760373935 3.9796356058
H 19.0276813601 13.9435558596 5.5905085007
H 17.5571219623 13.0994251480 5.1159744856
H 17.4267205509 6.8097394215 5.4386940893
H 18.6309605798 6.5447475570 4.0908063928
H 19.1769522902 6.7967893395 5.7795321205
Cl 21.6918881848 6.4623155464 7.2116159570
N 10.5509181794 11.4417677763 3.7625343153
N 9.4855224728 10.8763707052 1.9333818180
C 11.2226185809 11.2951304481 5.0830084910
C 9.7367839418 10.5202911507 3.2081363142
C 10.8523295258 12.3940312173 2.7903397187
C 10.1696439251 12.0518875285 1.6589306902
C 10.9699345119 12.4905212541 6.0242985787
C 8.5299303391 10.2545959066 1.0136131240
H 10.8833233092 10.3315163026 5.4819521520
H 12.2926752213 11.1857697543 4.8741855644
H 9.4206415124 9.6025135765 3.6803789527
H 11.5509662838 13.2039162791 2.9744088420
H 10.1250477198 12.5082910561 0.6765454471
H 11.8456732554 13.1523833314 6.0623928751
H 10.7571087812 12.1453342339 7.0448839515
H 10.1216593878 13.0908105147 5.6722019867
H 7.5566361034 10.7541988259 1.0869881382
H 8.9181847069 10.3561628530 -0.0073146893
H 8.4159251339 9.1921671318 1.2513555215
Cl 10.2404486268 11.5463808863 -4.7234881426
N 12.0189965498 5.4237312240 6.4295332559
N 10.1270864388 4.4419248959 5.9364013932
C 13.4737842451 5.5052879781 6.7175783226
C 11.4673771566 4.3289991774 5.8790424850
C 11.0037459602 6.2494243824 6.8744803084
C 9.8272979969 5.6239510132 6.5639814933
C 14.3175131134 5.3647482010 5.4439603969
C 9.1488297745 3.4085605835 5.5780965916
H 13.6465918749 6.4388328179 7.2694161534
H 13.6919522976 4.6869711378 7.4159742956
H 11.9968878209 3.4451935213 5.5522446207
H 11.1967370155 7.2302932085 7.2811531493
H 8.8179644833 5.9197776818 6.8075384330
H 13.9140902004 4.5660918414 4.8001597690
H 15.3353800865 5.0615070256 5.7252037689
H 14.3354621917 6.2967835786 4.8609150739
H 9.6716990648 2.4530065746 5.4589518185
H 8.4149321809 3.3260791663 6.3889904051
H 8.6504252803 3.6595470864 4.6201176409
Cl 13.5473182548 1.5143197123 6.9788277539
N 1.8104405701 23.2813547541 5.5516514100
N 1.7104283750 21.4323392193 6.7123364303
C 2.2747834604 24.4896496473 4.8587580325
C 2.4793156324 22.5158341648 6.4396668021
C 0.5263738247 22.7983671731 5.4370090243
C 0.4710463150 21.6359722150 6.1431349203
C 1.5593834888 24.7009728378 3.5255696199
C 1.8955149838 20.4228860047 7.7644313149
H 2.1302777614 25.3488653686 5.5301733959
H 3.3516420708 24.3965691523 4.6962821159
H 3.4905349686 22.6780235987 6.7801972279
H -0.2213340767 23.2782999381 4.8286031015
H -0.3624235427 20.9546180936 6.2691047430
H 1.4357481302 23.7593462302 2.9738410267
H 2.1358298389 25.3816641228 2.8968673007
H 0.5630953977 25.1418340716 3.6721536122
H 2.1224761758 20.9352950511 8.7069531414
H 0.9487674407 19.8880500461 7.8675299595
H 2.6956850206 19.7145756986 7.5055557938
Cl 0.3460100651 23.6744735934 8.4234627356
N 17.0199336187 2.0175620877 3.7066360011
N 17.2086608562 1.4479803797 1.5955185341
C 16.8325296839 1.9754602382 5.1943654404
C 16.6799050652 1.0932350445 2.7917341855
C 17.8158998106 2.9708409600 3.0792947832
C 17.9617679771 2.6078171513 1.7709555039
C 16.5049548786 0.6079566637 5.7466273081
C 17.2683299804 0.5446849499 0.4279041461
H 17.7856787910 2.3387093743 5.5937942754
H 16.0678373887 2.7187869087 5.4707459700
H 16.1545164996 0.1631821510 2.9900855847
H 18.2139794604 3.8189790862 3.6185391618
H 18.5524218351 3.0310602220 0.9705210076
H 15.4660433842 0.3282225823 5.5579506697
H 16.6570626437 0.6134278499 6.8361009664
H 17.1486270321 -0.1692605315 5.3029336813
H 16.2572478650 0.3638683967 0.0468135214
H 17.8950155520 1.0188457860 -0.3443261626
H 17.7276972313 -0.3923798698 0.7788149673
Cl 20.5756195638 1.3577995945 -0.4937475892
N 14.5701359974 19.3730644825 3.4831756007
N 15.4927673448 20.7065305184 2.0082379652
C 14.1424202298 18.1871969286 4.2589389416
C 15.5880079863 19.5004124226 2.6036677274
C 13.8240779475 20.5314522773 3.4575955726
C 14.3957714322 21.3618595087 2.5374867984
C 15.3005000555 17.4915801937 4.9740136688
C 16.4422338085 21.2737270625 1.0307121946
H 13.4020646756 18.5641057231 4.9769443038
H 13.6365275710 17.5067431557 3.5614118984
H 16.3377417057 18.7536286252 2.3626925638
H 12.9803031733 20.6814786042 4.1109587493
H 14.1324882902 22.3646752824 2.2450006489
H 16.0771159522 17.2208552005 4.2493161638
H 14.9087106205 16.5654275850 5.4078174814
H 15.7036011326 18.1110081991 5.7849089764
H 16.9881506090 20.4588285930 0.5442366319
H 15.8582167673 21.8208815314 0.2732543854
H 17.1296121692 21.9587996309 1.5605534172
Cl 14.1175815018 14.8022847577 1.6479954394
N 13.6622267919 8.5683282178 0.4441055272
N 14.3400700135 6.7138102025 -0.4846808398
C 12.9187118803 9.7944844129 0.7837436053
C 13.2494928792 7.4310704817 -0.1317478824
C 15.0404337083 8.5609520540 0.4935289556
C 15.4706334220 7.4104981936 -0.0887739251
C 13.5004873781 10.3241739587 2.0808650190
C 14.4189606529 5.6071919230 -1.4508534456
H 13.0454256351 10.4858442315 -0.0604021525
H 11.8586449386 9.5282643020 0.8729411916
H 12.2187737375 7.1607552790 -0.3275806365
H 15.6035936885 9.4038022178 0.8700625543
H 16.4723352809 7.0613008379 -0.3090783156
H 13.3684005812 9.5811420940 2.8788695424
H 12.9983111680 11.2549902790 2.3531013205
H 14.5540495741 10.5987679188 1.9796630845
H 15.1388727566 5.9100885963 -2.2188994367
H 14.7756616847 4.6909981545 -0.9731827281
H 13.4454981698 5.4374699053 -1.9247413768
Cl 11.5818059436 7.8595200475 3.9598621095
N 21.8100118577 14.1061209623 2.7942664077
N 22.3866155921 15.6075541322 4.2765334753
C 21.4786272107 13.6855047997 1.4131034643
C 21.7164152425 15.4110746224 3.1276462271
C 22.6087314630 13.4758585351 3.7176272379
C 22.9208305084 14.3961039874 4.6849748320
C 20.2552081993 12.8206988678 1.2828017940
C 22.8836003992 16.9278652924 4.7204949906
H 21.3403347760 14.6135360124 0.8441429485
H 22.3678662286 13.1741725716 1.0205952326
H 21.2924496840 16.1956411629 2.5034888503
H 22.9201313942 12.4419685723 3.5895094278
H 23.4603109389 14.2818918914 5.6140530828
H 20.4164764270 11.7984972696 1.6385353883
H 20.0527322051 12.7418419715 0.2027143654
H 19.3736582002 13.2673209897 1.7548661051
H 23.7828341770 17.1653528905 4.1368851196
H 22.1578766883 17.7210861705 4.5511701399
H 23.1384844684 16.8817514022 5.7871647957
Cl 25.2750134042 19.0852061401 2.3831259670
N 22.2359014289 24.3127642345 4.6255369899
N 22.2893291893 23.5459710640 6.6926694272
C 21.8119695378 24.4472979631 3.2072934507
C 21.8765974892 23.2906797577 5.4320668020
C 22.8407128774 25.2935407616 5.4204614292
C 22.8967851568 24.8032874156 6.6882118687
C 22.9050874408 24.2551781924 2.1376382571
C 21.8480831868 22.9587612639 7.9737727529
H 20.9757075328 23.7427766630 3.0766609511
H 21.3470300020 25.4319883070 3.1143304438
H 21.2681448341 22.4665011442 5.1128905730
H 23.1524263755 26.2536325819 5.0284670199
H 23.2981601894 25.2259841733 7.5967743588
H 22.4183891150 24.3644680151 1.1566882010
H 23.3583607596 23.2530393538 2.2082902679
H 23.7065310333 25.0049996877 2.2007561397
H 22.5387611855 22.1611172957 8.2814763713
H 21.8763889837 23.7605341734 8.7240276849
H 20.8147113052 22.5928648335 7.8653388769
Cl 18.1365257841 23.3099088595 3.4644833543
N 6.7007531247 9.5335292617 5.8682118641
N 6.4585888668 11.6392539219 5.5854770824
C 6.5500014255 8.0813352433 5.7137103510
C 5.8078840122 10.4539254823 5.4380721003
C 7.8849990840 10.1148521032 6.2820222954
C 7.7191040931 11.4550266009 6.1136013672
C 7.6956189889 7.5799120832 4.8704797391
C 5.9121584647 12.9096093835 5.1395042744
H 6.5587990553 7.6572587524 6.7247601219
H 5.5663588622 7.8752211496 5.2757169209
H 4.9721536852 13.8215437979 1.3512866537
H 8.7108840656 9.5397950029 6.6859872763
H 8.3651445931 12.2880981325 6.3493808848
H 7.4724563887 7.7178565808 3.8008754181
H 7.8750062700 6.5129661253 5.0454391863
H 8.6361301107 8.1015487455 5.0901828234
H 6.7327805775 13.6279381116 5.0249003229
H 5.4199427292 12.7760972244 4.1733007413
H 5.1829855708 13.3031761130 5.8565496166
Cl 5.7916943254 12.8713059592 1.5832991279
N 23.7222977690 3.7972928112 1.0514049892
N 25.2684131035 4.4620007692 -0.3296715052
C 22.8933403588 3.8419856005 2.2641321726
C 24.7836809759 4.6037610579 0.9126195793
C 23.5549766973 3.0603956321 -0.1188401447
C 24.5115902822 3.5024372968 -0.9808640251
C 21.7824939246 2.8133018400 2.2671369870
C 26.5646408519 4.8882406873 -0.8495501510
H 23.5902600722 3.7302150475 3.1093222658
H 22.4866694196 4.8576842123 2.3114872951
H 25.1920945212 5.2314779293 1.7006684361
H 22.7431704742 2.3382409064 -0.2580917988
H 24.8139204082 3.1495145163 -1.9571206316
H 21.4130210315 2.5506441900 1.2616337509
H 20.9178433346 3.1997252396 2.8194093661
H 22.1198499794 1.8909942612 2.7416269037
H 27.2640009343 4.0489850785 -0.7958896643
H 26.4571425475 5.2134614167 -1.8919674557
H 26.9616642408 5.7091889832 -0.2425136651
Cl 19.3624841288 5.2161263527 -0.7750076678
N 19.1678757013 19.1934088754 3.3824589129
N 20.1324321305 20.0024866476 1.6290615750
C 18.8992169729 18.9227138404 4.7928315366
C 19.7138953502 20.3127945583 2.8722153414
C 19.0713424025 18.2203844094 2.4062680637
C 19.6889583712 18.7240468873 1.3008139829
C 18.6797084028 20.2170028892 5.5370568137
C 21.1369968499 20.7978983023 0.9164607918
H 18.0125643009 18.2799985943 4.8415742896
H 19.7597320641 18.3615509257 5.1892055209
H 19.7774408709 21.2933928995 3.3397869886
H 18.5989883735 17.2666124147 2.6126385285
H 19.8484437869 18.2952263118 0.3184131739
H 19.6260416655 20.7553673875 5.6828625820
H 18.2396100947 20.0232225315 6.5201506143
H 17.9837637185 20.8703571982 4.9902764674
H 20.6555674089 21.4521781383 0.1719059807
H 21.6892214571 21.3794181338 1.6626147314
H 21.8419532208 20.1183210228 0.4139568410
Cl 22.3093880660 20.5380314910 4.6476453862
N 25.1969784932 11.3650101912 10.1763749569
N 24.7052605029 10.5120749007 8.2327281076
C 25.4446015109 12.3703345360 11.2207930154
C 25.0741424433 11.6318785191 8.8698336704
C 24.8787712594 10.0297813770 10.3810588433
C 24.5686347360 9.5003243279 9.1594436014
C 25.9456167530 13.7407445300 10.7668301651
C 24.6340046336 10.3042733439 6.7912635051
H 24.5041334036 12.4794618466 11.7789021644
H 26.1805593756 11.9251556199 11.9056457050
H 25.2308081194 12.6092692627 8.4169907438
H 24.9078934289 9.5847271955 11.3667918985
H 24.2907619521 8.4959756451 8.8601474639
H 26.7564617053 13.6663540903 10.0363963249
H 26.3647578683 14.2325526792 11.6550578029
H 25.1458888496 14.3811000455 10.3743615893
H 23.5853181330 10.1592046170 6.4732554017
H 25.1064139100 11.1535618373 6.2966666121
H 25.2041908571 9.4019482185 6.5444593090
Cl 22.3414191802 6.5855917553 0.8739672336
N 6.8266712155 16.7081606848 4.5300644086
N 4.7394718012 17.1753097385 4.9394802199
C 8.2708479708 16.9546529257 4.3471695705
C 6.0052264856 17.3764130687 5.3589728882
C 6.0696470583 16.1129849581 3.5448967211
C 4.7617864584 16.4115423202 3.7940121359
C 9.1377979982 15.7103915421 4.2600737874
C 3.5085529327 17.6088978629 5.5926643998
H 8.3717327525 17.5607825701 3.4390592629
H 8.6093200126 17.5726535320 5.1902687603
H 6.2741916441 17.9148781145 6.2560462400
H 6.5337506899 15.5528260397 2.7463988731
H 3.8335873999 16.0561237743 3.3584068878
H 9.2912245633 15.2640222424 5.2496021561
H 10.1081545108 16.0331455350 3.8501460307
H 8.7473306272 14.9504044625 3.5612114865
H 3.3015899597 18.6550176453 5.3426406057
H 2.6878095823 16.9780948074 5.2431521482
H 3.6256534158 17.4724471784 6.6718558535
Cl 3.8135672724 14.8423517704 7.0556645647
N 5.2296688923 22.6317224899 2.7819712568
N 7.1206781385 23.6717914318 3.1645017489
C 4.0669396475 21.9138145162 2.1830704172
C 6.3676964369 23.0865801863 2.2103357292
C 5.2742344720 22.9739162773 4.1175299514
C 6.4302702220 23.6604637872 4.3572353431
C 3.6987847035 20.6329896661 2.9508015086
C 8.4164612660 24.3413504716 3.0008507157
H 3.2335417645 22.6352285957 2.1430364532
H 4.3543801827 21.6726193504 1.1524968001
H 6.6146750172 23.0336468107 1.1551129836
H 4.4700875237 22.6591220285 4.7633964647
H 6.8407529114 24.0926405842 5.2618618324
H 4.5478943532 19.9418892264 2.9622714897
H 2.8623775660 20.1504966357 2.4245753286
H 3.3519093011 20.8317486128 3.9830979574
H 8.2810517294 25.3441090793 2.5439721581
H 8.8449955418 24.4801663100 4.0049577147
H 9.0972167938 23.7035031272 2.4239814271
Cl 6.2031111633 19.4676714233 -0.4214564837
N 2.9533100030 1.8089756897 8.5962506203
N 2.2028621430 3.5010567136 7.4415686905
C 3.7635828521 0.7928385091 9.2980564685
C 3.3039256443 2.7710095340 7.7150885898
C 1.6114367026 1.9265610953 8.8922221824
C 1.1560536088 3.0029631476 8.1930177023
C 4.6315240975 -0.0425207006 8.3625216223
C 1.9811912581 4.6378418958 6.5476342886
H 4.3342058944 1.2877466895 10.0928631592
H 3.0060370097 0.1419493782 9.7577521725
H 4.2839374400 2.9303124162 7.2972718303
H 1.0918519210 1.1741786188 9.4849097670
H 0.1833026806 3.4739318888 8.1653119207
H 4.1855177222 -0.0487823997 7.3542490407
H 4.6676000835 -1.0749928609 8.7410278298
H 5.6722053772 0.3053707605 8.2827238662
H 2.9329166938 5.0726971532 6.2238402078
H 1.4192392871 4.2997777182 5.6732229478
H 1.4055086708 5.3947876370 7.0883721545
Cl 2.0357103668 3.7165158223 3.4468919629
C 17.2449416730 7.6587529966 8.4166425200
C 16.9092293460 12.1989216977 8.4055411416
C 14.2447200983 15.6580368586 8.3340632082
C 10.2774518409 17.3098230315 8.3255071556
C 6.1956607953 16.0408182640 8.2261077778
C 3.7965653126 12.3256386908 8.4131619922
C 4.1562850102 8.0266045196 8.3813646391
C 6.3930790038 4.4248198885 8.3479886035
C 10.0162642570 2.1682781621 8.3263682957
C 14.3617676741 2.4026724079 8.2294253232
C 18.3726166590 4.3515735835 8.3368155518
C 21.0660898715 7.6986350910 8.3583030690
C 20.6691585771 12.1940796000 8.4445680390
C 18.7389757676 15.9856785721 8.3211052296
C 15.8953018863 19.3389432271 8.3956263420
C 12.1995207605 21.6104275737 8.2821562998
C 17.6723879262 8.9824488757 8.4389269020
C 16.3976844832 13.3484468721 8.3455864105
C 13.2928194715 16.4466497993 8.3525183884
C 9.0367479305 17.2853073824 8.3211619940
C 5.2062629513 15.1521474579 8.3810493850
C 3.5003475743 11.1286088951 8.3319567889
C 4.6753611053 6.8856519450 8.2576052430
C 7.2773708882 3.5541602359 8.3890431884
C 11.2660734691 2.0664633164 8.4367868346
C 15.6107915087 2.8954086418 8.2156403083
C 19.3526236538 5.0967184833 8.3906180237
C 21.1824236585 9.0163344062 8.1412087175
C 20.4464983874 13.4073154385 8.2425740601
C 17.8477165893 16.8532435589 8.3635989182
C 14.8743316545 20.0382770228 8.4808056529
C 10.7817248610 21.7159110670 8.2440208895
C 17.3261576782 9.9580690045 9.4411511935
C 15.7787380510 13.9380220335 9.4272259297
C 12.4611920809 16.7303402089 9.4445767555
C 8.2384353899 16.8924787397 9.4111817301
C 4.8593596352 14.3802848956 9.4803136152
C 3.6379282215 10.2762855114 9.4341267033
C 4.9930413237 6.2228461291 9.4379560286
C 8.0547857392 3.1996464824 9.4993328300
C 12.1808497365 2.1942423075 9.4532575596
C 16.2805035012 3.2912638329 9.3816146181
C 19.7658442950 5.8515758544 9.4398813351
C 20.9522434045 9.8238931964 9.3550081385
C 19.9886969871 14.0858779177 9.4096541429
C 17.2470498591 17.4739807666 9.4466464791
C 13.9690487210 20.3188306087 9.4939836608
C 10.0139454223 21.9274318912 9.4152028785
C 17.0556732562 11.3199318390 9.4869167077
C 14.8354197871 15.0046773235 9.4360734804
C 11.1288030393 17.2103559007 9.4105288283
C 6.9730827650 16.2881280555 9.3810326274
C 4.1784637536 13.1257713872 9.4657784277
C 3.8669143454 8.8720435228 9.4366921730
C 5.7969511152 5.0611478348 9.4504505059
C 9.3347123709 2.5904329625 9.4649910774
C 13.5893629747 2.3996850985 9.4402039245
C 17.5522082891 3.9775172654 9.3991016581
C 20.5048074460 7.0589768377 9.4668810041
C 20.7831830789 11.2699296481 9.4161432299
C 19.1868182898 15.2862642744 9.4591819520
C 16.3319714478 18.5059192314 9.4649799004
C 12.6683416359 21.0573168036 9.4917305165
C 7.8592477338 22.8016112896 13.1759883158
C 17.0586033637 7.8731895486 9.7532813040
C 16.6453453453 11.9377898571 10.7111293643 0 0 0
C 14.2415203553 15.4404598271 10.6846043643 0 0 0
C 10.4073453853 17.1519998171 10.6854393643 0 0 0
C 6.4143504153 15.8864048271 10.6863193643 0 0 0
C 4.0578854353 12.3890098571 10.6850343643 0 0 0
C 4.0797504353 8.1682248871 10.6851043643 0 0 0
C 6.3441854153 4.5955599071 10.6846743643 0 0 0
C 10.0672803953 2.5772699271 10.6851643643 0 0 0
C 14.3065653553 2.5532749271 10.6859293643 0 0 0
C 18.1337853353 4.3778999071 10.6850493643 0 0 0
C 20.5600003153 7.8291448871 10.6840293643 0 0 0
C 20.5994953153 12.0458148571 10.6821943643 0 0 0
C 18.6653053253 15.8275648271 10.6844243643 0 0 0
C 15.5915953553 18.7751748071 10.6900343643 0 0 0
C 11.8840853753 20.9544347871 10.6768193643 0 0 0
C 17.1281853353 9.0913948771 10.4996993643 0 0 0
C 16.0250153453 13.2252098471 10.7011843643 0 0 0
C 13.0955303653 16.2811048271 10.6843043643 0 0 0
C 8.9853253953 17.0677348171 10.6860593643 0 0 0
C 5.3926654253 14.8930248371 10.6859143643 0 0 0
C 3.7859304353 10.9903898671 10.6854293643 0 0 0
C 4.6186954253 6.8492498971 10.6844143643 0 0 0
C 7.4655404053 3.7170849171 10.6850643643 0 0 0
C 11.4730653753 2.3476649271 10.6855393643 0 0 0
C 15.6704853453 2.9646849271 10.6855643643 0 0 0
C 19.1590353253 5.3668699071 10.6845793643 0 0 0
C 20.8543453153 9.2228648771 10.6832643643 0 0 0
C 20.1215803153 13.3877248471 10.6826093643 0 0 0
C 17.7399553353 16.9104748171 10.6855643643 0 0 0
C 14.4037003553 19.5645947971 10.6933843643 0 0 0
C 10.5930603853 21.6120847871 10.6436593643 0 0 0
C 17.0031103353 9.6538348771 11.9183143543 0 0 0
C 15.6189703453 13.8264648471 11.9192343543 0 0 0
C 12.4645653753 16.6104098271 11.9194843543 0 0 0
C 8.2946104053 16.8896048171 11.9207943543 0 0 0
C 4.9646104253 14.3207848371 11.9196143543 0 0 0
C 3.7581554353 10.2774698671 11.9197193543 0 0 0
C 4.9758154253 6.2319148971 11.9187643543 0 0 0
C 8.0784404053 3.3514699171 11.9188693543 0 0 0
C 12.1851353753 2.3183749271 11.9199943543 0 0 0
C 16.3255803453 3.2455849171 11.9197243543 0 0 0
C 19.5959753253 5.9286498971 11.9192093543 0 0 0
C 20.8861453153 9.9340598671 11.9177543543 0 0 0
C 19.8115503153 14.0282698371 11.9176143543 0 0 0
C 17.2369853353 17.4126448171 11.9206443543 0 0 0
C 13.7702003653 19.9328997971 11.9209243543 0 0 0
C 9.9130453953 21.9200947871 11.9185293543 0 0 0
C 16.8008353453 11.1373448671 11.9188393543 0 0 0
C 14.7443353553 14.9423998371 11.9196643543 0 0 0
C 11.1134753853 17.0540648171 11.9200293543 0 0 0
C 7.0006604153 16.2940098271 11.9208443543 0 0 0
C 4.2951854353 13.0629448471 11.9189393543 0 0 0
C 3.9047154353 8.8602048771 11.9190943543 0 0 0
C 5.8425654253 5.1018699071 11.9190643543 0 0 0
C 9.3829153953 2.7791699271 11.9189543543 0 0 0
C 13.6058103653 2.4231699271 11.9202643543 0 0 0
C 17.5614503353 3.9531849171 11.9193693543 0 0 0
C 20.3009903153 7.1658448871 11.9188043543 0 0 0
C 20.7548003153 11.3517498571 11.9171343543 0 0 0
C 19.0808703253 15.2497498371 11.9187593543 0 0 0
C 16.1611553453 18.3432398071 11.9212193543 0 0 0
C 12.5113453753 20.6202297971 11.9202993543 0 0 0
C 8.6783504053 22.4462247771 11.9129493543 0 0 0
C 17.4142436374 8.4052374495 14.2932468129
C 16.6775903843 11.8813849351 13.1698760989
C 14.3335740980 15.5602019085 13.1613532993
C 10.4073203471 17.3106295422 13.1447796255
C 6.3639067429 15.9174452594 13.1645916255
C 3.9377665870 12.4228744400 13.1434271566
C 4.0661098269 8.1569917071 13.1643776691
C 6.3442090318 4.5641297585 13.1720670262
C 10.0433712091 2.3748647489 13.1519505638
C 14.3796009019 2.4007147606 13.1361346763
C 18.1551221205 4.4300739992 13.1251417054
C 20.7120318812 7.7665343102 13.1780753660
C 20.7051477618 12.0635579524 13.1769142180
C 18.6361268739 15.8331176609 13.1397793568
C 15.5282894713 18.8096914048 13.1854753497
C 11.8608636943 21.1477446525 13.1521256746
C 17.2774237221 9.0853713853 13.1495704870
C 16.1261062074 13.2151827704 13.1510462063
C 13.2140379538 16.4255126656 13.1631253277
C 9.0011698722 17.1860373468 13.1782292489
C 5.3414551971 14.9501737450 13.1544400930
C 3.7033382674 11.0251970754 13.1355094689
C 4.5920188895 6.8591080656 13.1498920155
C 7.4030096185 3.6403971510 13.1651449395
C 11.4593837143 2.2177185859 13.1598128728
C 15.6970320879 2.8502969200 13.1268438544
C 19.1692357586 5.3950611564 13.1800589755
C 20.9698500513 9.1836022971 13.2088967710
C 20.1479888985 13.3775357698 13.1210446156
C 17.7718398824 16.9598205864 13.1567574199
C 14.3887803114 19.6093194095 13.1912466890
C 10.6328924126 21.8402076669 13.2497658025
C 17.2629718868 9.8632979643 14.5095185679
C 15.7814720500 14.0348517267 14.2476514576
C 12.5205602897 17.0429895463 14.2074268149
C 8.1777522114 16.9357390482 14.2696831854
C 4.7598550993 14.3238347937 14.2253447128
C 3.6574948571 10.1970389132 14.2545928775
C 5.0216814179 6.1523504767 14.2817178541
C 8.0781367530 3.0073811133 14.1904267751
C 12.3607042739 2.1471241491 14.1909201999
C 16.4560925400 3.0999170804 14.2904783134
C 19.7204282976 5.9681425424 14.4078606198
C 21.0251559264 10.0292860893 14.3124071587
C 19.7145920197 14.0895967300 14.2523730081
C 17.2784585513 17.5464583028 14.2958222334
C 13.7375437391 20.0949514001 14.2491455725
C 10.0338420618 22.3044711787 14.3689278561
C 17.0428069680 11.0969911226 14.3064553364
C 15.0322838890 15.0027902331 14.2294151758
C 11.3184061950 17.3530701215 14.1864007327
C 7.0491767883 16.3975227040 14.2704019194
C 4.1521356483 13.2491868788 14.2350036420
C 3.8816823031 8.9758675603 14.2622178687
C 5.7749425827 5.1820684329 14.2850268261
C 9.1641418084 2.4185746175 14.2517004049
C 13.5902293912 2.1466723756 14.2192665586
C 17.4818840225 3.7829228520 14.1716076328
C 20.5654847791 6.9933177844 14.3526313044
C 20.9179053315 11.2875185780 14.3174963374
C 19.0737779597 15.1527219276 14.3161172764
C 16.3007261831 18.3054964395 14.1821087438
C 12.6479548033 20.6815711533 14.2117924383
C 8.9112156166 22.7712787958 13.9293697831
