&CONTROL
    calculation = 'scf',
    restart_mode = 'from_scratch',
    prefix = 'NaCl-N^Cl',
    pseudo_dir = '/home/adiaz/pseudo/',
    outdir = '.',
    tstress = .true.,
    tprnfor = .true.,
/
&SYSTEM
    ibrav = 0,
    nat = 17,
    ntyp = 2,
    ecutwfc = 65.0,
    ecutrho = 520.0,
    occupations = 'smearing',
    smearing = 'mp',
    degauss = 0.02,
/
&ELECTRONS
    conv_thr = 1.0d-8,
    mixing_beta = 0.7,
    electron_maxstep = 200,
/
&IONS
/
&CELL
/
ATOMIC_SPECIES
    Na  22.990  cr_lda_v1.5.uspp.F.UPF
    Cl   14.007  N.pz-rrkjus.UPF
CELL_PARAMETERS (angstrom)
    4.770000  0.000000  0.000000
   -2.385000  4.132087  0.000000
    0.000000  0.000000  4.450000
ATOMIC_POSITIONS (crystal)
    Cr 0.000000 0.000000 0.000000
    Cr 0.333333 0.666667 0.500000
    N  0.333333 0.666667 0.000000
K_POINTS automatic
    8 8 8 0 0 0

