&CONTROL
    calculation = 'relax'
    restart_mode='from_scratch',
    prefix='ns',
    nstep=200,
    pseudo_dir = '/home/elmer.barquero/carbon_nn/pseudo',
    outdir='.',
    max_seconds=85000
/
&SYSTEM
   ntyp             = 3
   nat              = 197
   ibrav            = 0
   occupations='smearing', smearing='mp', degauss=0.02,
   vdw_corr='dft-d3'

/
&ELECTRONS
    mixing_mode = 'local-TF',
    mixing_beta = 0.3
/
&IONS
/
&CELL
/

ATOMIC_SPECIES
C 12.011 C.pbe-n-kjpaw_psl.1.0.0.UPF
Al 26.9815385 Al.pbe-n-kjpaw_psl.1.0.0.UPF
Cl 35.45 Cl.pbe-n-kjpaw_psl.1.0.0.UPF

K_POINTS automatic
1 1 1 0 0 0

CELL_PARAMETERS angstrom
50.00000000000000 0.00000000000000 0.00000000000000
0.00000000000000 50.00000000000000 0.00000000000000
0.00000000000000 0.00000000000000 22.21355160000000

ATOMIC_POSITIONS angstrom
C 30.4371936558 21.8418164958 1.1008224860
C 30.0821348420 25.7456005631 7.3962528033
C 27.2324084417 28.8769231601 0.0179695737  0 0 0
C 23.1842920721 30.0662509373 0.0171169542  0 0 0
C 19.1661798195 28.8015785909 0.0139660156  0 0 0
C 16.9078558270 25.2726117551 0.0131251452  0 0 0
C 17.5109722178 21.1124548595 0.0121721040  0 0 0
C 20.3619411575 17.9823600709 0.0118061334  0 0 0
C 24.3091265243 16.4190661989 0.0108451698  0 0 0
C 28.5500075909 16.6238126688 0.0093827525  0 0 0
C 32.2478668190 18.6804381467 0.0086398353  0 0 0
C 34.2723701106 22.3703930714 0.0069866670  0 0 0
C 33.9954114585 26.5929906427 0.0065072083  0 0 0
C 32.5577418032 30.6105005714 0.0053494007  0 0 0
C 30.9410803883 34.5580950653 0.0088053561  0 0 0
C 28.9952840933 38.3844738886 7.3995033472
C 30.7311720896 22.9453981510 0.1998662222  0 0 0
C 29.3285474253 26.9592564896 7.4049816629
C 25.9628771329 29.5200672808 0.0179423026  0 0 0
C 21.7646280812 29.9321529434 0.0156112086  0 0 0
C 18.1315169709 27.8219232482 0.0137042636  0 0 0
C 16.7912570834 23.8528728864 0.0124334577  0 0 0
C 18.2747815938 19.9096888172 0.0121896666  0 0 0
C 21.5985924225 17.2753149142 0.0114852923  0 0 0
C 25.7275810495 16.2853839619 0.0102933055  0 0 0
C 29.8912357576 17.1031404051 0.0089989290  0 0 0
C 33.1709849467 19.7642198148 0.0083183218  0 0 0
C 34.4102476460 23.7862434732 0.0065638659  0 0 0
C 33.5721785028 27.9511568862 0.0060836325  0 0 0
C 32.0253120384 31.9302958858 0.0051827615  0 0 0
C 30.3486144465 35.8529941478 0.0114293296  0 0 0
C 28.2482003696 39.6252442040 7.3665828277
C 30.9987542542 23.9433888764 1.2398672821
C 28.9113102682 27.5435547557 1.2399150741
C 25.2927097574 29.7456806757 1.2527498291
C 21.0717123063 29.7582272344 1.2486886079
C 17.7099618559 27.2461873297 1.2478518446
C 16.8569307540 23.1422008424 1.2466401359
C 18.7361237443 19.3655418349 1.2464313259
C 22.2520491895 16.9899583060 1.2456079346
C 26.4408774979 16.2922950839 1.2443252883
C 30.5310112760 17.4184377627 1.2430544880
C 33.5581783188 20.3632912396 1.2422444426
C 34.3947236672 24.4970526713 1.2408632115
C 33.3323294186 28.6207409143 1.2399733054
C 31.7613241167 32.5879797977 1.2396941956
C 30.0249101667 36.5055623271 1.2387610286
C 27.8535807591 40.2513092301 1.2389115512
C 30.5313898537 25.2607304794 1.2353905749
C 27.8373168316 28.4829769675 1.2462183561
C 23.8945017118 30.0188069172 1.2517790196
C 19.7642100751 29.1914518634 1.2482199911
C 17.0946013869 25.9615231801 1.2474642932
C 17.2225835546 21.7651516962 1.2465533152
C 19.7850049495 18.4017356300 1.2461119383
C 23.6103935809 16.5608155443 1.2452295743
C 27.8556025246 16.4610828468 1.2436371953
C 31.7180106577 18.2055257920 1.2434148992
C 34.1125852368 21.6759479618 1.2411752855
C 34.1747307519 25.9036127054 1.2403452219
C 32.8220826300 29.9504901952 1.2396715562
C 31.2214748429 33.9041586045 1.2396146816
C 29.3464832432 37.7683286342 1.2384240398
C 27.1388259622 41.3805177271 1.2386249032
C 30.8183288461 21.9262027093 2.4822260930
C 30.2505893298 25.9122132047 2.4834916922
C 27.2464370145 28.8770556451 2.4846381283
C 23.1814497005 30.0453520079 2.4842127489
C 19.1662356127 28.8011746307 2.4821384567
C 16.9081862979 25.2726464407 2.4811888614
C 17.5121690956 21.1130472195 2.4804641221
C 20.3617394124 17.9823658191 2.4800026911
C 24.3093768812 16.4195082631 2.4790112413
C 28.5500336201 16.6235338429 2.4774039826
C 32.2585831358 18.6722408632 2.4765057059
C 34.2921506769 22.3671457473 2.4742742078
C 34.0035227198 26.5945678813 2.4738654614
C 32.5606258873 30.6119596111 2.4735670894
C 30.9499286750 34.5622666373 2.4700424978
C 29.0088456201 38.3920346996 2.4816024224
C 31.2430990419 23.3285274743 2.4828230682
C 29.4066020685 27.0428014009 2.4834988373
C 25.9669497017 29.5017945618 2.4852349030
C 21.7644026801 29.9254867198 2.4832742740
C 18.1311955428 27.8223725237 2.4818830509
C 16.7905726661 23.8528622348 2.4806461969
C 18.2747201678 19.9094041568 2.4804396274
C 21.5985608752 17.2753730383 2.4796536165
C 25.7277159098 16.2847209507 2.4785347579
C 29.8917601304 17.1020854129 2.4767666447
C 33.1869945532 19.7533742293 2.4758166011
C 34.4327427235 23.7848643512 2.4740617625
C 33.5748568471 27.9514459015 2.4736312469
C 32.0303058063 31.9323184895 2.4738614531
C 30.3620153365 35.8595699219 2.4661671662
C 28.2554799083 39.6285653678 2.5149264531
C 30.9984262252 23.9434115962 3.7262107090
C 28.9083034687 27.5400152019 3.7278286884
C 25.2863160986 29.7225170031 3.7175281005
C 21.0714140140 29.7558381426 3.7175489536
C 17.7094646478 27.2464129190 3.7159338827
C 16.8570111685 23.1422852917 3.7145670650
C 18.7357502199 19.3650432723 3.7145533699
C 22.2518199835 16.9900162055 3.7136251488
C 26.4407152446 16.2926267821 3.7125102352
C 30.5307531827 17.4184948933 3.7105381613
C 33.5583558238 20.3632422009 3.7090980303
C 34.3952604254 24.4973173122 3.7077313440
C 33.3326620212 28.6217319840 3.7079967057
C 31.7663693856 32.5944070204 3.7073163226
C 30.0690702173 36.4934985988 3.6961414395
C 27.9300131958 40.1737575275 3.7531010853
C 30.5307334827 25.2604165681 3.7315203988
C 27.8316032476 28.4733417691 3.7225308297
C 23.8911564609 29.9985090129 3.7177183121
C 19.7639419106 29.1909249836 3.7168118590
C 17.0944008599 25.9616368705 3.7155392320
C 17.2224686907 21.7652594597 3.7145713752
C 19.7844662389 18.4009399823 3.7141866619
C 23.6102906670 16.5610915534 3.7132478533
C 27.8555102485 16.4612186292 3.7116208798
C 31.7177481674 18.2056772440 3.7100162089
C 34.1120838568 21.6757934970 3.7081910006
C 34.1754912682 25.9033184524 3.7081178726
C 32.8232981215 29.9503603644 3.7081328050
C 31.2295300024 33.9117588140 3.7059746498
C 29.4054005337 37.7472619801 3.6889944261
C 27.2081346520 41.3120868045 4.3113497202
C 30.4363172014 21.8430775350 3.8643113626
C 30.0814342051 25.7450560913 4.9757833461
C 27.2263520888 28.8644408982 4.9500294742
C 23.1826934964 30.0521727265 4.9507414197
C 19.1658472327 28.8014972884 4.9507763646
C 16.9084508043 25.2725899367 4.9494716085
C 17.5114763947 21.1127094884 4.9486856225
C 20.3615733680 17.9820178774 4.9481525684
C 24.3091309954 16.4194563386 4.9472275020
C 28.5499902994 16.6234526329 4.9453835386
C 32.2481509788 18.6803929966 4.9443199768
C 34.2721122585 22.3700596901 4.9419727601
C 33.9961645378 26.5930949406 4.9416344822
C 32.5594209509 30.6120757772 4.9414485049
C 30.9523735408 34.5645464155 4.9411914319
C 29.0742835269 38.3203510927 4.9395550047
C 30.7309708828 22.9452235468 4.7659293868
C 29.3276146206 26.9578840355 4.9674396335
C 25.9562541225 29.5016872492 4.9504056904
C 21.7641162801 29.9276200878 4.9511076272
C 18.1315415288 27.8216658481 4.9502561857
C 16.7920667447 23.8530028387 4.9488735985
C 18.2750463638 19.9098800771 4.9487032369
C 21.5984640380 17.2752934987 4.9477831785
C 25.7274602643 16.2857627362 4.9467223033
C 29.8911466680 17.1026287493 4.9445263367
C 33.1715372446 19.7641230766 4.9434100149
C 34.4107944270 23.7861826465 4.9417953651
C 33.5728001263 27.9520369872 4.9416561886
C 32.0294415480 31.9342197675 4.9412232500
C 30.3731168949 35.8612125649 4.9405834527
C 28.3609231951 39.4958453094 4.9402745598
C 30.5749614379 23.4988255953 6.1858336063
C 28.8430209875 27.4987177913 6.1862563772
C 25.2888266181 29.7450823449 6.1861688176
C 21.0718671615 29.7583215159 6.1857643893
C 17.7097122357 27.2459738566 6.1842741767
C 16.8568660116 23.1422036043 6.1829460686
C 18.7365496978 19.3658236853 6.1827159492
C 22.2517350593 16.9899620530 6.1819549669
C 26.4406756561 16.2944120570 6.1806977874
C 30.5285877569 17.4202257282 6.1789080813
C 33.5414514263 20.3715915682 6.1779038429
C 34.3766097032 24.4966042348 6.1760877577
C 33.3312324010 28.6212045298 6.1756740997
C 31.7594174943 32.5914125227 6.1754744165
C 30.0532106025 36.4848492702 6.1844011345
C 27.9253446605 40.1714271665 6.1280669363
C 30.2941093747 24.9575703875 6.1860697873
C 27.8073526946 28.4652465991 6.1859925106
C 23.8941012083 30.0242772148 6.1861328990
C 19.7639606403 29.1921968564 6.1849916898
C 17.0932284332 25.9615481481 6.1838385104
C 17.2211009854 21.7645934853 6.1828234329
C 19.7850518875 18.4013623968 6.1825463480
C 23.6101914089 16.5608745467 6.1815005151
C 27.8555040258 16.4623446030 6.1800210714
C 31.7121101324 18.2112384422 6.1788526341
C 34.0949943789 21.6816213698 6.1769667787
C 34.1634656486 25.9023956498 6.1760275723
C 32.8214440348 29.9497861030 6.1751150821
C 31.2205356381 33.9082810774 6.1768554957
C 29.3876029410 37.7372574394 6.1905470744
C 27.2088410743 41.3128229024 5.5692376742
Al 26.9253668745 33.5827002169 5.8036015168
Cl 27.7011201210 33.7157046253 3.7969957211
Cl 27.0202797115 35.4614283910 6.8541157268
Cl 28.1373249554 32.0998997674 6.8658934975
Cl 24.8493792143 32.9722411602 5.7375321585
~

