&CONTROL
   calculation      = 'relax'
   tstress          = .true.
   tprnfor          = .true.
   outdir           = '.'
   prefix           = 'graphene_h_in_c'
   pseudo_dir       = '/home/ebarquero/practicas/p2/pseudo/'
/
&SYSTEM
   ibrav            = 0
   ecutwfc          = 60
   ecutrho          = 600
   occupations      = 'smearing'
   degauss          = 0.02
   smearing         = 'mp'
   ntyp             = 2
   nat              = 19
/
&ELECTRONS
   conv_thr         = 1e-06
/
&IONS
/
&CELL
/
&FCP
/
&RISM
/
ATOMIC_SPECIES
C 12.011 C.pbe-n-kjpaw_psl.1.0.0.UPF
H 1.008 H.pbe-kjpaw_psl.1.0.0.UPF

K_POINTS automatic
3 3 3  0 0 0

CELL_PARAMETERS angstrom
7.38000000000000 0.00000000000000 0.00000000000000
-3.69000000000000 6.39126747992916 0.00000000000000
0.00000000000000 0.00000000000000 15.00000000000000

ATOMIC_POSITIONS angstrom
C 0.0000000000 0.0000000000 7.4948951686  
C 1.2300000000 0.7101408311 7.4948951686  
C -1.2300000000 2.1304224933 7.4948951686  
C 0.0000000000 2.8405633244 7.4948951686  
C -2.4600000000 4.2608449866 7.4948951686  
C -1.2300000000 4.9709858177 7.4948951686  
C 2.4600000000 0.0000000000 7.4948951686  
C 3.6900000000 0.7101408311 7.4948951686  
C 1.2300000000 2.1304224933 7.4948951686  
C 2.4600000000 2.8405633244 7.4948951686  
C 0.0000000000 4.2608449866 7.4948951686  
C 1.2300000000 4.9709858177 7.4948951686  
C 4.9200000000 0.0000000000 7.4948951686  
C 6.1500000000 0.7101408311 7.4948951686  
C 3.6900000000 2.1304224933 7.4948951686  
C 4.9200000000 2.8405633244 7.4948951686  
C 2.4600000000 4.2608449866 7.4948951686  
C 3.6900000000 4.9709858177 7.4948951686  
H 0.0000000000 1.4202816622 8.5948951686  

