&CONTROL
   calculation      = 'relax'
   tstress          = .true.
   tprnfor          = .true.
   outdir           = '.'
   prefix           = 'plusCL2'
   pseudo_dir       = '/home/ebarquero/practicas/pseudo'
/
&SYSTEM
   ibrav            = 0
   ecutwfc          = 60
   ecutrho          = 600
   occupations      = 'smearing'
   degauss          = 0.02
   smearing         = 'mp'
   ntyp             = 4
   nat              = 20
/
&ELECTRONS
   conv_thr         = 1e-06
/
&IONS
/
&CELL
/
&FCP
/
&RISM
/
ATOMIC_SPECIES
N 14.007 N.pbe-n-kjpaw_psl.1.0.0.UPF
C 12.011 C.pbe-n-kjpaw_psl.1.0.0.UPF
H 1.008 H.pbe-kjpaw_psl.1.0.0.UPF
Cl 35.45 Cl.pbe-n-kjpaw_psl.1.0.0.UPF

K_POINTS automatic
1 1 1  0 0 0

CELL_PARAMETERS angstrom
20.00000000000000 0.00000000000000 0.00000000000000
0.00000000000000 20.00000000000000 0.00000000000000
0.00000000000000 0.00000000000000 20.00000000000000

ATOMIC_POSITIONS angstrom
N 9.5687000000 9.9674000000 9.6456500000  
N 11.6816000000 9.6685000000 9.9639500000  
C 8.1737000000 9.6982000000 9.3675500000  
C 10.5350000000 9.0440000000 9.6763500000  
C 10.1064000000 11.2024000000 9.9175500000  
C 11.4444000000 11.0132000000 10.1190500000  
C 7.3847000000 9.3915000000 10.6289500000  
C 12.9696000000 9.0197000000 10.0909500000  
H 7.7410000000 10.5639000000 8.8534500000  
H 8.1172000000 8.8497000000 8.6763500000  
H 10.4104000000 7.9867000000 9.5021500000  
H 9.4530000000 12.0535000000 9.9311500000  
H 12.2730000000 11.6528000000 10.3549500000  
H 7.8011000000 8.5200000000 11.1441500000  
H 6.3383000000 9.1839000000 10.3864500000  
H 7.4183000000 10.2368000000 11.3236500000  
H 12.8692000000 7.9465000000 9.9083500000  
H 13.6617000000 9.4458000000 9.3593500000  
H 13.3546000000 9.1782000000 11.1020500000  
Cl 10.2730000000 5.7827000000 9.8048000000  

