&CONTROL
/
&SYSTEM
   ntyp             = 3
   nat              = 26
   ibrav            = 0
/
&ELECTRONS
/
&IONS
/
&CELL
/
&FCP
/
&RISM
/
ATOMIC_SPECIES
Ti 47.867 Ti.pbe-spn-kjpaw_psl.1.0.0.UPF
O 15.999 O.pbe-n-kjpaw_psl.1.0.0.UPF
F 18.998403163 F.pbe-n-kjpaw_psl.1.0.0.UPF

K_POINTS gamma

CELL_PARAMETERS angstrom
12.99294568294657 0.00000000000000 0.00000000000000
0.00000000000000 5.91620000000000 0.00000000000000
0.00000000000000 0.00000000000000 17.98142421664935

ATOMIC_POSITIONS angstrom
Ti 0.0000000000 0.0000000000 8.0000000000  
Ti 3.2482364207 1.4790500000 8.0000000000  
O 0.0000000000 0.0000000000 9.9814242166  
O 3.2482364207 0.0000000000 9.2668122041  
O 1.2668122041 1.4790500000 8.0000000000  
O 5.2296606374 1.4790500000 8.0000000000  
Ti 0.0000000000 2.9581000000 8.0000000000  
Ti 3.2482364207 4.4371500000 8.0000000000  
O 0.0000000000 2.9581000000 9.9814242166  
O 3.2482364207 2.9581000000 9.2668122041  
O 1.2668122041 4.4371500000 8.0000000000  
O 5.2296606374 4.4371500000 8.0000000000  
Ti 6.4964728415 0.0000000000 8.0000000000  
Ti 9.7447092622 1.4790500000 8.0000000000  
O 6.4964728415 0.0000000000 9.9814242166  
O 9.7447092622 0.0000000000 9.2668122041  
O 7.7632850456 1.4790500000 8.0000000000  
O 11.7261334789 1.4790500000 8.0000000000  
Ti 6.4964728415 2.9581000000 8.0000000000  
Ti 9.7447092622 4.4371500000 8.0000000000  
O 6.4964728415 2.9581000000 9.9814242166  
O 9.7447092622 2.9581000000 9.2668122041  
O 7.7632850456 4.4371500000 8.0000000000  
O 11.7261334789 4.4371500000 8.0000000000  
F 0.0000000000 0.0000000000 9.5000000000  
F 3.2482364207 1.4790500000 9.5000000000  

