&CONTROL
   calculation      = 'md'
   restart_mode     = 'from_scratch'
   nstep            = 200
   tprnfor          = .true.
   dt               = 20
   outdir           = '.'
   prefix           = 'elec'
   pseudo_dir       = '/home/ebarquero/practicas/pseudo/'
/
&SYSTEM
   ibrav            = 0
   ecutwfc          = 50
   ecutrho          = 330
   occupations      = 'smearing'
   degauss          = 0.02
   smearing         = 'mp'
   ntyp             = 5
   nat              = 199
/
&ELECTRONS
   conv_thr         = 1e-08
/
&IONS
   ion_dynamics     = 'verlet'
   ion_temperature  = 'berendsen'
   tempw            = 300.0
/
&CELL
/
&FCP
/
&RISM
/
ATOMIC_SPECIES
Cl 35.45 Cl.pbe-n-kjpaw_psl.1.0.0.UPF
Al 26.9815385 Al.pbe-n-kjpaw_psl.1.0.0.UPF
N 14.007 N.pbe-n-kjpaw_psl.1.0.0.UPF
C 12.011 C.pbe-n-kjpaw_psl.1.0.0.UPF
H 1.008 H.pbe-kjpaw_psl.1.0.0.UPF

K_POINTS automatic
1 1 1  0 0 0

CELL_PARAMETERS angstrom
18.00000000000000 0.00000000000000 0.00000000000000
0.00000000000000 18.00000000000000 0.00000000000000
0.00000000000000 0.00000000000000 7.40000000000000

ATOMIC_POSITIONS angstrom
Cl 2.5187605000 9.2026920000 0.9195520000  
Cl 3.7111365000 11.4854180000 3.7535250000  
Cl 6.2587505000 9.8777270000 1.3894250000  
Al 4.1628825000 10.1886120000 2.0208340000  
Cl 11.7072585000 14.2183460000 4.6466060000  
Cl 8.1856745000 13.8959560000 3.1774190000  
Cl 10.6643395000 10.9939500000 2.8634710000  
Al 10.1857575000 13.0360840000 3.5624990000  
Cl 16.6054295000 11.7392230000 2.1227400000  
Cl 17.5120395000 8.5545690000 4.0462880000  
Cl 14.1012095000 8.8496560000 2.3307290000  
Al 16.0728925000 9.7144830000 2.8332520000  
Cl 7.3073165000 10.2544170000 3.2856630000  
Cl 4.6720055000 7.6260400000 2.3852360000  
Cl 4.0809205000 9.9986210000 5.3323460000  
Al 5.3534145000 9.2930260000 3.6677490000  
Cl 15.7285345000 13.2731210000 3.4332580000  
Cl 14.9995485000 10.3804200000 1.0322460000  
Cl 12.5914805000 11.1302240000 3.9137350000  
Al 14.4398545000 11.5945890000 2.7930800000  
Cl 14.2344335000 2.2675840000 4.9239450000  
Cl 17.3559325000 4.4658480000 4.6275130000  
Cl 14.2831465000 5.7487980000 6.5185460000  
Al 15.2911705000 4.1607430000 5.3566680000  
Cl 5.9676945000 5.8958710000 2.7866870000  
Cl 9.3560915000 7.5685320000 2.1662320000  
Cl 8.4923645000 6.2259300000 5.6469460000  
Al 7.9387165000 6.5634440000 3.5332880000  
N 8.3042885000 14.3162880000 5.3675000000  
N 7.5404345000 12.1902330000 5.5146090000  
C 8.3010115000 15.7444100000 5.1112890000  
C 7.2413765000 13.4738840000 5.1353260000  
C 9.2881725000 13.5118340000 5.9439210000  
C 8.8270705000 12.2482610000 6.0429330000  
C 9.5861215000 16.4486500000 5.5136690000  
C 6.6293255000 11.0777800000 5.5853720000  
H 8.1243095000 15.9166240000 4.0426600000  
H 7.4649515000 16.2037590000 5.6522960000  
H 6.2848135000 13.7907740000 4.7401620000  
H 10.2433055000 13.9040520000 6.2569910000  
H 9.3072155000 11.3740720000 6.4553100000  
H 9.8017685000 16.3096610000 6.5781350000  
H 10.4394785000 16.0757450000 4.9377420000  
H 9.4996725000 17.5241190000 5.3279510000  
H 5.8998815000 11.1168960000 4.7692430000  
H 6.0845225000 11.0870770000 6.5351000000  
H 7.1663655000 10.1265490000 5.5056240000  
N 13.1926065000 3.1959860000 1.9662380000  
N 15.3770715000 2.6117500000 2.0758160000  
C 12.0179335000 4.0406520000 1.8572960000  
C 14.4890265000 3.6549280000 2.0109510000  
C 13.2977645000 1.8044710000 1.9742800000  
C 14.6000985000 1.4577130000 2.0264340000  
C 10.7094495000 3.2730500000 1.7676920000  
C 16.8100695000 2.6911590000 1.9622850000  
H 11.9755215000 4.7096310000 2.7253500000  
H 12.1140055000 4.6753670000 0.9681430000  
H 14.7701125000 4.6991370000 1.9640070000  
H 12.4333345000 1.1605910000 1.9262370000  
H 15.0482115000 0.4758810000 2.0261610000  
H 10.7024075000 2.5937830000 0.9089380000  
H 10.5323395000 2.6845190000 2.6739090000  
H 9.8724675000 3.9689190000 1.6501070000  
H 17.1908835000 3.5991570000 2.4420810000  
H 17.1119915000 2.7050600000 0.9098930000  
H 17.2890355000 1.8335490000 2.4467550000  
N 7.7084625000 1.3731870000 4.2459540000  
N 9.8979035000 1.1178270000 4.7620610000  
C 6.3096355000 1.7250550000 4.4029890000  
C 8.6643265000 1.4946700000 5.2282460000  
C 8.3992245000 0.9288620000 3.1177430000  
C 9.7055515000 0.7896120000 3.4229560000  
C 5.4813595000 1.5487790000 3.1411410000  
C 11.1592295000 1.2719860000 5.4387950000  
H 5.8727785000 1.1113450000 5.2000870000  
H 6.2370945000 2.7701930000 4.7271950000  
H 8.4730035000 1.8722980000 6.2244280000  
H 7.9093625000 0.7587460000 2.1715800000  
H 10.5279215000 0.4873330000 2.7927700000  
H 5.8772395000 2.1496830000 2.3158510000  
H 5.4594345000 0.5007820000 2.8246170000  
H 4.4494045000 1.8670290000 3.3211010000  
H 11.0478725000 1.1083330000 6.5160610000  
H 11.5583645000 2.2795830000 5.2828520000  
H 11.8935175000 0.5492760000 5.0671420000  
N 13.2933685000 15.0106000000 1.6359040000  
N 15.5254365000 15.3613750000 1.4942870000  
C 12.0360495000 14.2924410000 1.7285450000  
C 14.5300325000 14.4182480000 1.5213940000  
C 13.5505235000 16.3800850000 1.7121790000  
C 14.8813915000 16.5868010000 1.6407930000  
C 10.8224085000 15.1893070000 1.9076520000  
C 16.9433935000 15.1202960000 1.5572070000  
H 11.8990855000 13.6907590000 0.8218650000  
H 12.0836365000 13.5937330000 2.5724800000  
H 14.6957755000 13.3489770000 1.4935770000  
H 12.7635025000 17.1089960000 1.8279900000  
H 15.4345205000 17.5123020000 1.6887160000  
H 10.9111355000 15.8071520000 2.8072670000  
H 10.6888065000 15.8520850000 1.0463490000  
H 9.9171925000 14.5816940000 2.0076010000  
H 17.2102485000 14.2101530000 1.0093820000  
H 17.2677315000 15.0043840000 2.5965570000  
H 17.5016205000 15.9512550000 1.1127940000  
N 4.3564495000 14.2762800000 1.5670880000  
N 2.4565865000 15.4924070000 1.3752990000  
C 5.7659555000 13.9803710000 1.7429200000  
C 3.8207435000 15.5423260000 1.5081020000  
C 3.2619455000 13.4134170000 1.4966390000  
C 2.1297775000 14.1393690000 1.3955220000  
C 6.0804835000 12.4963960000 1.8338240000  
C 1.5415695000 16.6010770000 1.4545020000  
H 6.3296525000 14.4096190000 0.9057560000  
H 6.1242345000 14.4715550000 2.6556410000  
H 4.3969115000 16.4547470000 1.5923820000  
H 3.3696445000 12.3407220000 1.5396900000  
H 1.1046765000 13.8060570000 1.3419460000  
H 5.5430765000 12.0238390000 2.6625540000  
H 5.8117615000 11.9768670000 0.9081650000  
H 7.1520025000 12.3487140000 2.0030490000  
H 1.9761395000 17.5000260000 1.0042530000  
H 1.2959705000 16.8228230000 2.4982410000  
H 0.6109435000 16.3791390000 0.9213120000  
N 1.4038815000 11.0090680000 4.5333660000  
N 1.1610325000 9.1181100000 3.3124940000  
C 1.7567755000 11.8684870000 5.6478390000  
C 1.5448655000 9.6403800000 4.5211950000  
C 0.9395545000 11.3392950000 3.2594790000  
C 0.8077165000 10.2132100000 2.5290080000  
C 1.5559755000 13.3499390000 5.3751610000  
C 1.3294045000 7.7591540000 2.8680090000  
H 1.1574255000 11.5864730000 6.5219650000  
H 2.8076665000 11.6996050000 5.9120200000  
H 1.9407045000 9.0589880000 5.3439220000  
H 0.7512285000 12.3588110000 2.9607370000  
H 0.4948475000 10.0948870000 1.5028930000  
H 2.1419435000 13.6804720000 4.5112750000  
H 0.5022445000 13.5785900000 5.1845400000  
H 1.8761645000 13.9385150000 6.2409880000  
H 1.1856705000 7.0561430000 3.6955360000  
H 2.3344495000 7.6100460000 2.4599270000  
H 0.6008705000 7.5091000000 2.0893410000  
N 15.1704765000 13.7793300000 5.4995780000  
N 15.3536085000 11.5259270000 5.3818260000  
C 14.5505245000 15.0857950000 5.6178820000  
C 14.4866955000 12.5860120000 5.4575570000  
C 16.5206205000 13.4270550000 5.4783780000  
C 16.6283925000 12.0838610000 5.4213640000  
C 15.5405375000 16.2356570000 5.7019170000  
C 15.0202235000 10.1299050000 5.4943190000  
H 13.8921395000 15.2496640000 4.7561820000  
H 13.9168805000 15.1021990000 6.5128180000  
H 13.4095165000 12.4960500000 5.5139280000  
H 17.3091215000 14.1622680000 5.5214610000  
H 17.5142155000 11.4673980000 5.4118880000  
H 16.2178055000 16.1186310000 6.5542810000  
H 16.1430835000 16.3072910000 4.7904490000  
H 15.0066605000 17.1832420000 5.8270500000  
H 14.0544815000 9.9189910000 5.0225740000  
H 14.9620115000 9.8322910000 6.5464200000  
H 15.7739555000 9.5067030000 5.0012470000  
N 13.0670745000 7.1158600000 4.0580370000  
N 14.9326295000 6.7086110000 2.8418620000  
C 12.2393105000 7.4507990000 5.2016320000  
C 14.4374375000 6.9953520000 4.0883040000  
C 12.7132875000 6.9223810000 2.7220600000  
C 13.8267565000 6.6927810000 1.9964510000  
C 10.7597515000 7.5781030000 4.8790260000  
C 16.3175625000 6.6824820000 2.4494930000  
H 12.3669475000 6.6826580000 5.9739770000  
H 12.5875535000 8.3978630000 5.6311460000  
H 15.0450705000 7.1436960000 4.9716840000  
H 11.6907145000 6.9783090000 2.3824380000  
H 13.9304015000 6.5234850000 0.9356040000  
H 10.5815555000 8.3408870000 4.1139670000  
H 10.3490585000 6.6283750000 4.5208150000  
H 10.2028295000 7.8679860000 5.7759120000  
H 16.9447385000 6.2836900000 3.2540430000  
H 16.6675745000 7.6914050000 2.2077400000  
H 16.4628615000 6.0472980000 1.5691280000  
N 3.7218505000 5.7404840000 5.4660770000  
N 2.4929115000 3.8421950000 5.3591420000  
C 4.0269495000 7.1550120000 5.5719490000  
C 2.4523325000 5.2117380000 5.4204300000  
C 4.5767445000 4.6374970000 5.4623970000  
C 3.8430115000 3.5069600000 5.4118140000  
C 5.5122715000 7.4629440000 5.6634410000  
C 1.3762185000 2.9406850000 5.4729700000  
H 3.6114825000 7.6775880000 4.7018050000  
H 3.5285365000 7.5638190000 6.4591620000  
H 1.5436255000 5.7981850000 5.4642370000  
H 5.6497165000 4.7394150000 5.5121120000  
H 4.1687655000 2.4780430000 5.4153070000  
H 5.9713455000 6.9658650000 6.5242980000  
H 6.0398795000 7.1426900000 4.7589890000  
H 5.6665525000 8.5406950000 5.7785460000  
H 0.4857845000 3.3578600000 4.9905000000  
H 1.1409835000 2.7512770000 6.5254280000  
H 1.5966715000 1.9820120000 4.9913480000  

