&CONTROL
   calculation      = 'md'
   restart_mode     = 'from_scratch'
   nstep            = 200
   tprnfor          = .true.
   dt               = 20
   outdir           = '.'
   prefix           = 'elec'
   pseudo_dir       = '/home/ebarquero/practicas/pseudo/'
/
&SYSTEM
   ibrav            = 0
   ecutwfc          = 50
   ecutrho          = 330
   occupations      = 'smearing'
   degauss          = 0.02
   smearing         = 'mp'
   ntyp             = 5
   nat              = 208
/
&ELECTRONS
   conv_thr         = 1e-08
/
&IONS
   ion_dynamics     = 'verlet'
   ion_temperature  = 'berendsen'
   tempw            = 300.0
/
&CELL
/
&FCP
/
&RISM
/
ATOMIC_SPECIES
Cl 35.45 Cl.pbe-n-kjpaw_psl.1.0.0.UPF
Al 26.9815385 Al.pbe-n-kjpaw_psl.1.0.0.UPF
N 14.007 N.pbe-n-kjpaw_psl.1.0.0.UPF
C 12.011 C.pbe-n-kjpaw_psl.1.0.0.UPF
H 1.008 H.pbe-kjpaw_psl.1.0.0.UPF

K_POINTS automatic
1 1 1  0 0 0

CELL_PARAMETERS angstrom
18.00000000000000 0.00000000000000 0.00000000000000
0.00000000000000 18.00000000000000 0.00000000000000
0.00000000000000 0.00000000000000 7.40000000000000

ATOMIC_POSITIONS angstrom
Cl 3.9715115000 8.3800600000 4.9258475000  
Cl 2.6138865000 11.6745560000 6.3283975000  
Cl 0.4848855000 8.4964860000 6.5050445000  
Al 2.3567615000 9.5170340000 5.9197635000  
Cl 12.6529175000 10.7406630000 0.8977455000  
Cl 12.8841315000 12.8254800000 4.1015055000  
Cl 9.4721655000 11.6372770000 2.8323965000  
Al 11.6697385000 11.7344730000 2.6105495000  
Cl 14.6167275000 10.5444790000 1.2202685000  
Cl 13.5194445000 11.0704300000 4.8511555000  
Cl 11.1381865000 9.4122030000 2.3523805000  
Al 13.0914525000 10.3423710000 2.8079345000  
Cl 8.2420725000 14.3218420000 6.5070235000  
Cl 7.6675595000 10.5358240000 6.5062025000  
Cl 4.6760315000 12.9263750000 6.5070705000  
Al 6.8618885000 12.5946800000 6.5067655000  
Cl 14.8375255000 12.4263450000 1.8607615000  
Cl 11.1876675000 13.0962170000 0.9153485000  
Cl 13.0986375000 15.6139300000 3.0771285000  
Al 13.0412775000 13.7121640000 1.9510795000  
Cl 15.1756625000 5.0712140000 4.4886135000  
Cl 16.1306655000 2.6388270000 1.6894245000  
Cl 17.3635765000 2.0252340000 5.2625755000  
Al 16.2233015000 3.2450920000 3.8135375000  
Cl 4.1346875000 8.5417960000 2.6008255000  
Cl 5.3898535000 5.0108700000 3.3889335000  
Cl 7.6744905000 8.0288900000 3.9685595000  
Al 5.7330105000 7.1938520000 3.3194395000  
N 4.0571535000 2.3515690000 2.8060465000  
N 5.8376345000 3.4463850000 2.2279385000  
C 2.6335355000 2.0254320000 2.9846615000  
C 4.5020565000 3.5394670000 2.3531425000  
C 5.1315685000 1.4893450000 2.9736055000  
C 6.2529385000 2.1817580000 2.6130695000  
C 2.0153415000 1.4272560000 1.7264185000  
C 6.6663355000 4.5489850000 1.7304515000  
H 2.5615945000 1.3327310000 3.8335285000  
H 2.1294345000 2.9604770000 3.2582855000  
H 3.9266075000 4.4654590000 2.0020175000  
H 5.0144455000 0.4773410000 3.3417905000  
H 7.2940625000 1.8844150000 2.6035565000  
H 2.0831755000 2.1335600000 0.8898885000  
H 0.9535005000 1.2131500000 1.9048895000  
H 2.5135945000 0.4910450000 1.4416755000  
H 5.9778975000 5.3464790000 1.4021875000  
H 7.3205175000 4.9113800000 2.5320195000  
H 7.2702125000 4.1975970000 0.8853285000  
Cl 3.5551625000 6.0794470000 1.0134805000  
N 1.1287335000 5.2726800000 4.7783805000  
N 1.2769595000 6.8288670000 3.2752995000  
C 1.1591135000 3.9337650000 5.3877595000  
C 1.2549935000 5.4966180000 3.4562335000  
C 1.0669845000 6.4863120000 5.4485735000  
C 1.1562235000 7.4656940000 4.5000275000  
C 2.5715965000 3.5018710000 5.7639415000  
C 1.4312975000 7.4474860000 1.9548995000  
H 0.5018235000 3.9604960000 6.2668715000  
H 0.7250435000 3.2447080000 4.6528575000  
H 1.4349165000 4.7676020000 2.5913315000  
H 0.9528585000 6.5529020000 6.5237345000  
H 1.1395335000 8.5442160000 4.5946615000  
H 3.2141825000 3.4679000000 4.8755835000  
H 2.5437205000 2.4954660000 6.2016315000  
H 3.0172385000 4.1859280000 6.4983075000  
H 1.6287495000 6.6318810000 1.2383075000  
H 0.5122195000 7.9813390000 1.6864005000  
H 2.2763455000 8.1459010000 1.9768975000  
Cl 2.0563415000 4.1326180000 0.8793855000  
N 9.5857265000 13.1322050000 4.1561555000  
N 8.0578825000 13.6048420000 2.6914895000  
C 10.2093535000 12.6072650000 5.3810995000  
C 8.2562105000 13.1496210000 3.9411075000  
C 10.2430765000 13.5874650000 3.0219145000  
C 9.2791545000 13.8888140000 2.1016235000  
C 10.5189645000 11.1183050000 5.2796425000  
C 6.7237955000 13.7345630000 2.0970575000  
H 11.1201775000 13.1936140000 5.5604845000  
H 9.5059445000 12.8027900000 6.1998075000  
H 7.3924285000 12.7624400000 4.5859815000  
H 11.3217235000 13.6713740000 2.9679755000  
H 9.3611235000 14.2792140000 1.0949895000  
H 9.5997415000 10.5435630000 5.1124565000  
H 10.9699555000 10.7720340000 6.2187395000  
H 11.2213145000 10.9102240000 4.4615775000  
H 6.0083095000 13.2941940000 2.8125005000  
H 6.4955085000 14.7932350000 1.9270765000  
H 6.6943705000 13.1885940000 1.1465715000  
Cl 5.6592605000 12.0317740000 5.0130545000  
N 10.2004305000 15.8622600000 4.6300785000  
N 9.0561425000 16.3125510000 2.8438015000  
C 11.3543975000 15.5590110000 5.4911005000  
C 10.2638625000 15.9200420000 3.2859055000  
C 8.9272345000 16.2227150000 5.0483125000  
C 8.2063035000 16.5020040000 3.9217475000  
C 12.1228745000 16.8132110000 5.8905735000  
C 8.7585545000 16.5124880000 1.4220305000  
H 10.9729155000 15.0263500000 6.3721945000  
H 11.9969325000 14.8737330000 4.9246725000  
H 11.1542205000 15.7947500000 2.5763595000  
H 8.6394685000 16.2374640000 6.0925355000  
H 7.1753245000 16.8102580000 3.8013165000  
H 12.5082815000 17.3288730000 5.0024275000  
H 12.9783945000 16.5350530000 6.5197915000  
H 11.4886445000 17.5079880000 6.4570205000  
H 9.7089825000 16.3929180000 0.8742235000  
H 8.0261725000 15.7679490000 1.0887555000  
H 8.3590925000 17.5226590000 1.2725095000  
Cl 12.2415275000 16.0351650000 1.0015265000  
N 15.3778515000 14.2673080000 4.2632085000  
N 15.7956825000 15.7468140000 2.7336915000  
C 15.3640305000 12.9761320000 4.9686375000  
C 15.8535465000 14.4329780000 3.0140365000  
C 15.0089385000 15.4995350000 4.7841645000  
C 15.2687785000 16.4300410000 3.8179695000  
C 16.6456665000 12.7347670000 5.7575015000  
C 16.2590085000 16.3072380000 1.4604205000  
H 14.4839095000 12.9724980000 5.6251115000  
H 15.2273265000 12.2020800000 4.2034885000  
H 16.3432385000 13.6847180000 2.2983535000  
H 14.5868405000 15.6100580000 5.7756525000  
H 15.1202735000 17.5025870000 3.8121655000  
H 17.5151145000 12.7289900000 5.0887145000  
H 16.5927355000 11.7571670000 6.2541865000  
H 16.7940455000 13.5051970000 6.5257765000  
H 16.7315745000 15.4831830000 0.8988885000  
H 15.4070875000 16.7137020000 0.9029155000  
H 16.9900385000 17.1006150000 1.6566875000  
Cl 17.4863435000 13.0361120000 0.8867035000  
N 5.3512325000 10.1000530000 2.9022395000  
N 3.9420425000 11.3556180000 3.9702665000  
C 6.2234275000 9.6121520000 1.8223385000  
C 4.4964355000 11.1319780000 2.7657995000  
C 5.3368175000 9.6592200000 4.2180405000  
C 4.4455185000 10.4483540000 4.8886725000  
C 7.5714295000 10.3232380000 1.8023025000  
C 2.9737925000 12.4302110000 4.2104865000  
H 6.3443535000 8.5301290000 1.9644245000  
H 5.6824385000 9.7787340000 0.8827225000  
H 4.2994775000 11.8228380000 1.8737175000  
H 5.9400005000 8.8270590000 4.5602495000  
H 4.1310225000 10.4355820000 5.9247095000  
H 7.4369585000 11.4008880000 1.6479075000  
H 8.1793965000 9.9348430000 0.9748215000  
H 8.1215925000 10.1649350000 2.7393645000  
H 2.9149725000 13.0240540000 3.2822665000  
H 1.9955795000 11.9995500000 4.4542595000  
H 3.3236245000 13.0564260000 5.0398515000  
Cl 3.8156545000 13.4275160000 0.9192235000  
N 8.7855905000 4.6951110000 4.8627605000  
N 7.0652485000 3.4537530000 5.3126485000  
C 9.5825495000 5.8959050000 4.5662685000  
C 7.4404015000 4.6871210000 4.9303235000  
C 9.2727695000 3.4419650000 5.2064995000  
C 8.1877155000 2.6598630000 5.4855435000  
C 9.9502785000 6.6711090000 5.8260255000  
C 5.6625805000 3.0796870000 5.5189515000  
H 10.4785415000 5.5669300000 4.0235375000  
H 8.9781385000 6.5149170000 3.8918725000  
H 6.6841565000 5.5401810000 4.8195335000  
H 10.3307495000 3.2093990000 5.2110495000  
H 8.1238795000 1.6207910000 5.7833655000  
H 9.0469135000 7.0038110000 6.3518495000  
H 10.5316225000 7.5614260000 5.5529435000  
H 10.5543415000 6.0602920000 6.5100095000  
H 5.0647335000 4.0011800000 5.4134415000  
H 5.3627955000 2.3386510000 4.7687585000  
H 5.5416615000 2.6623140000 6.5257045000  
Cl 5.0561785000 6.5405360000 5.0824185000  
N 12.3809685000 3.2755580000 4.6432515000  
N 12.2938295000 4.5013120000 2.8563885000  
C 12.3779425000 2.0778910000 5.4979685000  
C 12.1026155000 3.2557540000 3.3255675000  
C 12.7535245000 4.5589520000 5.0173875000  
C 12.6940765000 5.3309200000 3.8915885000  
C 13.7384485000 1.3918150000 5.5363945000  
C 12.1103355000 4.8540610000 1.4450545000  
H 12.0609955000 2.3935580000 6.5007065000  
H 11.6143925000 1.4037830000 5.0907015000  
H 11.8595895000 2.3796960000 2.6288955000  
H 13.0122265000 4.8164450000 6.0372885000  
H 12.8960635000 6.3847460000 3.7463415000  
H 14.0374535000 1.0711980000 4.5308835000  
H 13.6824005000 0.5002650000 6.1745135000  
H 14.5117045000 2.0583370000 5.9409285000  
H 11.9173385000 3.9138200000 0.9006275000  
H 11.2609815000 5.5394750000 1.3421035000  
H 13.0229495000 5.3304790000 1.0675155000  
Cl 11.7645425000 1.3592670000 0.9949345000  
N 16.3357575000 7.4806400000 2.7559875000  
N 15.6158115000 8.6923410000 4.4041375000  
C 16.8245575000 6.3072060000 2.0149855000  
C 16.1590445000 7.5028070000 4.0910695000  
C 15.8984175000 8.6801890000 2.2122115000  
C 15.4490915000 9.4441110000 3.2521255000  
C 15.6904585000 5.3919050000 1.5686705000  
C 15.2571935000 9.0639190000 5.7764675000  
H 17.3990605000 6.6795740000 1.1565725000  
H 17.5110835000 5.7762120000 2.6858245000  
H 16.3003125000 6.6794810000 4.8746945000  
H 15.9542835000 8.8937500000 1.1516925000  
H 15.0359035000 10.4448680000 3.2664285000  
H 15.1325145000 5.0178180000 2.4358535000  
H 16.1048605000 4.5279040000 1.0329725000  
H 14.9952955000 5.9137040000 0.8976275000  
H 15.4134925000 8.1694510000 6.4035245000  
H 15.8956445000 9.8879430000 6.1158175000  
H 14.2045735000 9.3695500000 5.8073475000  
Cl 16.0167905000 5.6825970000 6.5013395000  

