&CONTROL
   calculation      = 'relax'
   tstress          = .true.
   tprnfor          = .true.
   outdir           = '.'
   prefix           = '2A_1E'
   pseudo_dir       = '/home/ebarquero/practicas/p3/pseudo/'
/
&SYSTEM
   ibrav            = 0
   ecutwfc          = 50
   ecutrho          = 330
   occupations      = 'smearing'
   degauss          = 0.02
   smearing         = 'mp'
   ntyp             = 3
   nat              = 1302
/
&ELECTRONS
   conv_thr         = 1e-06
/
&IONS
/
&CELL
/
&FCP
/
&RISM
/
ATOMIC_SPECIES
O 15.999 O.pbe-n-kjpaw_psl.1.0.0.UPF
H 1.008 H.pbe-kjpaw_psl.1.0.0.UPF
C 12.011 C.pbe-n-kjpaw_psl.1.0.0.UPF

K_POINTS automatic
1 1 1  0 0 0

CELL_PARAMETERS angstrom
25.00000000000000 0.00000000000000 0.00000000000000
0.00000000000000 25.00000000000000 0.00000000000000
0.00000000000000 0.00000000000000 25.00000000000000

ATOMIC_POSITIONS angstrom
O 10.8236360000 13.2887800000 9.3427920000  
H 10.8415980000 12.6913810000 9.5079020000  
H 10.7412980000 13.4437160000 8.7481690000  
O 15.1857140000 3.0834150000 17.1535680000  
H 14.9729750000 2.5009970000 17.1528620000  
H 15.7963830000 3.1903850000 17.1547120000  
O 18.4398340000 22.4966060000 18.0744220000  
H 18.8620400000 22.1709240000 17.7579690000  
H 17.9823750000 22.2035460000 18.3731000000  
O 19.9098740000 6.6938890000 19.8552070000  
H 19.9632570000 7.3077880000 19.7863080000  
H 19.3483590000 6.4339490000 19.8938630000  
O 10.2563790000 17.7611000000 19.1713900000  
H 10.5837290000 17.2679380000 18.9867210000  
H 10.5473590000 18.2867630000 19.3242640000  
O 7.8148750000 20.8678210000 11.5250500000  
H 7.2150820000 21.0163700000 11.5765380000  
H 8.2476710000 21.3106450000 11.5559600000  
O 12.2229630000 4.9761930000 17.3379320000  
H 11.9001750000 4.7500790000 17.8166280000  
H 12.6309090000 5.4342920000 17.4278590000  
O 14.1677250000 2.5439350000 11.7780670000  
H 14.3462290000 2.4964380000 11.1861640000  
H 14.4925740000 2.8948870000 12.1726140000  
O 19.5770080000 9.2878470000 21.7819340000  
H 19.6430770000 9.3604510000 21.1696990000  
H 19.1145610000 9.5737260000 22.0798890000  
O 10.1932890000 2.7978450000 20.4450640000  
H 10.7327260000 2.4923140000 20.4337640000  
H 9.6683320000 2.4952590000 20.5763000000  
O 14.2025530000 7.1038490000 2.8507210000  
H 13.5956930000 7.2099410000 2.7804700000  
H 14.6148320000 7.4383870000 2.5306100000  
O 16.2238670000 16.7666940000 18.2984220000  
H 16.2064220000 16.9875210000 18.8775590000  
H 16.2655040000 17.1573460000 17.8188200000  
O 13.6854650000 5.1963870000 19.5848020000  
H 13.0973660000 5.3927310000 19.5772260000  
H 14.0551250000 5.3059050000 19.0992930000  
O 5.5297310000 16.8186520000 18.0507640000  
H 5.5003090000 17.4373330000 18.0218170000  
H 5.0198310000 16.4896590000 18.1777560000  
O 7.6986290000 19.2572670000 14.8055950000  
H 7.2920900000 19.1764250000 14.3444450000  
H 8.2597580000 19.4924560000 14.6865040000  
O 18.4215760000 3.4130540000 19.5951210000  
H 18.6596080000 3.8640110000 19.2423500000  
H 18.7974500000 3.0453160000 19.9235250000  
O 9.1730450000 6.5241750000 15.4774650000  
H 8.5982920000 6.4837610000 15.2483490000  
H 9.6597140000 6.5355590000 15.0935570000  
O 8.4288760000 3.0657620000 14.0894600000  
H 8.6197290000 2.4992070000 14.2539560000  
H 7.8631240000 3.1444710000 13.8484400000  
O 2.4935530000 8.3428520000 15.4541550000  
H 2.5682640000 7.7322580000 15.5320190000  
H 2.9860460000 8.7045440000 15.3493170000  
O 14.2913180000 19.2068530000 3.3413010000  
H 14.8194540000 19.4717740000 3.1532650000  
H 13.7797650000 19.5502050000 3.4104710000  
O 5.6244830000 8.8114300000 12.5054960000  
H 5.3250610000 8.7088490000 13.0386870000  
H 5.6815860000 9.3892690000 12.2882340000  
O 3.7869220000 16.5033500000 9.3269670000  
H 4.0662700000 17.0045610000 9.0919760000  
H 4.0771230000 16.1572000000 9.7516150000  
O 14.0652960000 17.1871360000 18.3482340000  
H 13.8919960000 16.6351800000 18.5713490000  
H 13.8933540000 17.3588050000 17.7778590000  
O 6.4107650000 8.2022920000 22.0513240000  
H 6.5084130000 8.0223780000 21.4660330000  
H 5.8324660000 8.2406660000 22.2714570000  
O 4.6009420000 19.2696510000 20.5817850000  
H 4.3363420000 18.8515530000 20.2080870000  
H 4.3167000000 19.8091030000 20.6938590000  
O 10.0517210000 19.9801970000 6.4946510000  
H 10.3834170000 20.4718210000 6.6756290000  
H 9.4457470000 19.9510540000 6.6223550000  
O 10.1975200000 7.2423860000 10.3615440000  
H 9.7555180000 6.8270600000 10.2326770000  
H 10.0494140000 7.8398340000 10.4355930000  
O 7.7492050000 12.6088590000 20.4979440000  
H 8.3006120000 12.8921170000 20.4843820000  
H 7.2303240000 12.9431400000 20.5560900000  
O 19.9851550000 19.2524480000 9.5421410000  
H 20.2017910000 19.7577560000 9.8288490000  
H 20.2453130000 19.0607100000 9.0130710000  
O 21.7452360000 12.8574940000 10.5134350000  
H 21.7248430000 12.2745150000 10.7236450000  
H 21.2237860000 13.1406940000 10.3338540000  
O 3.9535220000 5.1178870000 22.4140210000  
H 4.0748110000 5.6964910000 22.2270070000  
H 4.4178270000 4.7161710000 22.5000910000  
O 17.4352880000 7.2154400000 4.2248920000  
H 17.0652420000 6.9265460000 3.8198300000  
H 17.2414000000 7.7315320000 4.5084710000  
O 22.4714030000 12.5678950000 13.3856070000  
H 22.5000610000 12.4918530000 12.7708990000  
H 22.2474160000 12.1142820000 13.7439730000  
O 3.1265050000 17.0450240000 14.3123090000  
H 2.5089590000 17.0828180000 14.3532570000  
H 3.4018290000 16.4903520000 14.2823380000  
O 16.2038540000 14.7191970000 8.1748170000  
H 16.2536760000 15.3028170000 8.3782230000  
H 16.0893620000 14.2600290000 8.5753390000  
O 6.5008750000 10.4839870000 18.3223090000  
H 6.8845830000 10.6387960000 18.7841230000  
H 6.7292950000 10.2585190000 17.7918840000  
O 18.8773460000 19.9629740000 16.2647480000  
H 19.4030110000 19.7464280000 16.0172550000  
H 18.7561330000 20.5708460000 16.2520820000  
O 11.7028680000 10.9208380000 10.8739750000  
H 11.0848660000 10.9631330000 10.8465350000  
H 12.0493790000 11.4348860000 10.8671290000  
O 2.4961810000 14.1018610000 8.6477630000  
H 2.7694800000 13.6191460000 8.3707020000  
H 2.8389160000 14.5748760000 8.8554920000  
O 14.1140810000 11.4468380000 22.0933680000  
H 13.5024460000 11.5422230000 22.0576830000  
H 14.3406140000 10.8708550000 22.0574820000  
O 14.5539330000 11.2391270000 11.7976490000  
H 15.0001010000 10.8286750000 11.6675250000  
H 14.1970530000 11.4635980000 11.3431040000  
O 7.5167390000 18.1665570000 6.2875340000  
H 6.9017220000 18.2232870000 6.3423470000  
H 7.7729890000 17.6042010000 6.2380110000  
O 19.2004410000 11.0536470000 15.5488850000  
H 19.5682840000 11.0090990000 16.0460530000  
H 18.6052640000 10.8844190000 15.5874600000  
O 18.6361750000 17.6144270000 21.4518590000  
H 18.8030740000 17.0184610000 21.4139450000  
H 18.9128920000 18.0372950000 21.0927320000  
O 4.4168310000 12.3660420000 21.7342710000  
H 4.9788840000 12.4543440000 21.9807830000  
H 4.0314340000 12.8461480000 21.6612690000  
O 4.9597060000 6.9350040000 18.5348280000  
H 4.7377080000 7.0375870000 17.9650360000  
H 5.4287020000 7.2779260000 18.7511820000  
O 6.6689270000 19.4097400000 4.5048360000  
H 6.7447770000 18.9341020000 4.1143430000  
H 7.1035740000 19.8499770000 4.5452720000  
O 8.1045300000 8.9753080000 15.8555430000  
H 8.4103960000 8.4994740000 16.1095060000  
H 7.5533650000 9.1460200000 16.0823380000  
O 16.5381820000 17.2720200000 7.3686870000  
H 16.3938940000 17.8713260000 7.3017400000  
H 17.1269510000 17.1039000000 7.4658910000  
O 13.3494650000 16.7202290000 9.7632520000  
H 12.7799330000 16.9608590000 9.8101520000  
H 13.8250770000 17.0801090000 9.5940160000  
O 11.4403240000 8.8718890000 17.9710550000  
H 10.8561590000 8.9952310000 17.8037030000  
H 11.8249450000 9.3352220000 18.1185360000  
O 17.7568800000 22.5012860000 8.4962720000  
H 17.1513770000 22.3735700000 8.4572440000  
H 18.1744140000 22.0859970000 8.3024610000  
O 22.4881370000 19.7742200000 22.5007660000  
H 22.0711730000 19.4540780000 22.1719510000  
H 22.5003560000 20.3931610000 22.4672250000  
O 9.2318490000 2.8248940000 11.9376180000  
H 9.1164330000 2.4922290000 11.4272430000  
H 9.0097590000 3.4014650000 11.9886450000  
O 9.9528420000 17.0332120000 5.3797450000  
H 9.6026560000 16.5675500000 5.5918700000  
H 9.6848550000 17.5439170000 5.1523110000  
O 12.2427890000 15.9993590000 17.2606920000  
H 12.0683980000 15.4188360000 17.3912710000  
H 11.8587680000 16.4719800000 17.3769600000  
O 13.4417050000 22.1541500000 11.1688560000  
H 13.9801780000 22.4538520000 11.2373720000  
H 12.9195790000 22.4734900000 11.0700210000  
O 7.5381590000 15.2626680000 22.4843050000  
H 8.0434330000 15.6163470000 22.4204450000  
H 7.4555670000 14.7707170000 22.1161690000  
O 8.1334560000 8.8377380000 18.9662710000  
H 7.9346250000 8.2928230000 19.1853680000  
H 8.3391200000 8.8809210000 18.3830050000  
O 10.5959530000 21.3034210000 8.7005740000  
H 9.9936070000 21.1755930000 8.7734260000  
H 10.7854930000 21.8925010000 8.6628810000  
O 10.0031540000 22.4802580000 13.1880830000  
H 9.7729660000 21.9314930000 13.0139040000  
H 10.4250710000 22.5096680000 13.6413850000  
O 18.7614620000 18.2759420000 11.5898940000  
H 18.7027070000 18.8604130000 11.3913720000  
H 19.0179030000 17.8478830000 11.2219750000  
O 4.9941910000 7.4712720000 10.2885070000  
H 5.3645280000 7.3174100000 9.8155940000  
H 5.0068990000 7.1403050000 10.8125880000  
O 17.9939830000 19.5583900000 3.6692310000  
H 18.2322010000 19.2299600000 4.1381170000  
H 18.0883120000 19.3766350000 3.0840570000  
O 14.3416350000 22.5000370000 8.9518600000  
H 14.6415860000 21.9764630000 8.8091420000  
H 13.7248250000 22.4967810000 9.0142740000  
O 17.7515890000 18.8149900000 17.8973580000  
H 18.1513230000 18.8718950000 18.3679350000  
H 17.3888870000 19.2922920000 17.7392720000  
O 17.7836280000 8.9862290000 7.0447310000  
H 17.2087170000 9.0278220000 6.8162220000  
H 18.0461880000 8.4302430000 7.1241200000  
O 7.1273400000 14.3252650000 5.9705090000  
H 6.6105190000 14.0040320000 6.0895590000  
H 7.0933350000 14.8680010000 5.6727780000  
O 15.0952820000 2.5771860000 14.8843750000  
H 15.6814350000 2.4973000000 15.0701480000  
H 14.9452440000 2.4962650000 14.2883030000  
O 15.0364900000 7.6404850000 18.2913810000  
H 15.4062540000 7.1428090000 18.2992400000  
H 14.4206380000 7.5691540000 18.2920250000  
O 22.1306290000 9.3737570000 21.8703520000  
H 21.9603930000 9.3541680000 21.2744450000  
H 21.7105440000 9.2777380000 22.3160760000  
O 5.2399230000 9.2260570000 15.7543660000  
H 5.1815210000 8.6804400000 16.0430870000  
H 5.1015090000 9.2744030000 15.1519820000  
O 18.5807080000 21.9612620000 10.4632270000  
H 18.9258480000 22.4189980000 10.6994980000  
H 18.8477370000 21.4289520000 10.2908820000  
O 16.5587580000 14.6151530000 19.4978270000  
H 16.1370300000 14.5342060000 19.0505440000  
H 17.0246440000 15.0158770000 19.4157770000  
O 20.0923800000 2.8512810000 11.6100070000  
H 20.6258430000 3.0935850000 11.8129240000  
H 19.6097730000 2.7977140000 11.9954700000  
O 6.3394980000 11.2043490000 6.2532450000  
H 6.4417830000 11.8157120000 6.2376600000  
H 5.7671300000 10.9834320000 6.1640650000  
O 5.7137550000 14.9980410000 2.6103630000  
H 5.4887380000 14.4209690000 2.5816490000  
H 5.3432940000 15.4813670000 2.4941000000  
O 20.0415030000 4.8257200000 21.2413980000  
H 20.1129910000 4.2098300000 21.2475160000  
H 20.2854520000 5.1706360000 21.6951420000  
O 9.6794060000 14.6145860000 18.5834860000  
H 10.2205150000 14.8944170000 18.4678770000  
H 9.6673080000 14.0133190000 18.7341300000  
O 22.2217630000 10.9711600000 19.1338210000  
H 22.5007190000 10.6839370000 19.6072720000  
H 22.1526600000 11.5872080000 19.1422790000  
O 16.9426090000 11.6044860000 4.3740310000  
H 16.5917930000 11.7140860000 4.8734160000  
H 17.4401900000 11.2374280000 4.4192330000  
O 7.0233050000 18.1750800000 20.1135820000  
H 6.7791550000 17.7047470000 19.7916390000  
H 6.6903650000 18.6885230000 20.2130200000  
O 2.8540700000 18.3112780000 6.4007160000  
H 2.4958450000 18.6000290000 6.8163690000  
H 2.8272760000 17.6945240000 6.3436350000  
O 11.8237650000 2.6178360000 2.8868890000  
H 11.2646780000 2.7674040000 2.6643590000  
H 12.2898630000 2.4949150000 2.4970120000  
O 7.6670710000 21.5338230000 13.9921660000  
H 7.5335690000 21.9421320000 13.5450300000  
H 8.0994010000 21.6682350000 14.4157060000  
O 5.4599230000 6.6628570000 7.0882790000  
H 5.4086190000 6.2524190000 6.6263510000  
H 5.4394200000 6.4707410000 7.6773730000  
O 12.3757630000 5.9158280000 11.3340470000  
H 12.0178230000 6.4194730000 11.2821830000  
H 12.9921570000 5.9753070000 11.3637450000  
O 15.7597010000 3.1723960000 21.2554050000  
H 15.1780740000 3.3650410000 21.3506270000  
H 15.8855640000 2.5657540000 21.2328950000  
O 10.4402330000 14.6075600000 14.0846440000  
H 10.4419190000 14.3537200000 14.6503580000  
H 10.8872030000 14.4647370000 13.6794510000  
O 10.3178010000 12.1001840000 13.7746510000  
H 10.6523910000 11.9443420000 14.2728790000  
H 9.8647760000 11.7263770000 13.5761620000  
O 12.9080530000 6.3821400000 9.1402570000  
H 12.5250440000 6.4807490000 8.6627110000  
H 13.2237610000 5.8500350000 9.1796790000  
O 22.0022190000 5.7795090000 10.8109920000  
H 22.4799230000 5.3956880000 10.9055940000  
H 21.6091010000 5.9050620000 11.2736530000  
O 10.6857080000 7.0992700000 19.5486160000  
H 10.0706210000 7.0209970000 19.5519620000  
H 11.0610460000 6.6068180000 19.5798210000  
O 2.7163890000 22.3982030000 15.1369140000  
H 3.3159820000 22.5016390000 15.0175070000  
H 2.4978520000 21.8181120000 15.1468010000  
O 12.0767110000 9.8102260000 6.2402380000  
H 12.2657070000 10.3922100000 6.1400200000  
H 12.4021710000 9.3348280000 6.0112520000  
O 13.3226550000 13.2174000000 12.8375280000  
H 13.9358870000 13.3063140000 12.8149490000  
H 13.0926700000 12.6416670000 12.8371020000  
O 4.6920190000 11.8895760000 12.8195360000  
H 4.7736230000 12.1726930000 13.3651130000  
H 4.7482970000 12.2106590000 12.2921830000  
O 21.9254120000 5.5267110000 20.2726940000  
H 22.5000170000 5.6800420000 20.4481580000  
H 21.8348320000 5.2210120000 19.7409940000  
O 7.0608460000 12.9620350000 4.1747020000  
H 7.6096330000 12.8060040000 4.4175090000  
H 6.9801350000 13.5246120000 3.9270030000  
O 5.4078270000 22.2324430000 12.8022260000  
H 5.7042670000 22.5000760000 12.3279210000  
H 5.4138700000 22.4992560000 13.3618120000  
O 20.0624660000 18.5680990000 6.2782710000  
H 19.6147780000 18.1658570000 6.1291190000  
H 20.6576560000 18.4014300000 6.2299800000  
O 18.8088550000 4.2585170000 14.3139460000  
H 18.3739750000 3.8427470000 14.4638910000  
H 18.7620830000 4.5791260000 13.7853780000  
O 20.8722520000 8.3279770000 10.3679330000  
H 20.5828260000 8.6025020000 9.8932350000  
H 20.6851240000 7.7706060000 10.5646110000  
O 3.9024570000 22.0030470000 18.2724460000  
H 3.6807650000 22.5012250000 17.9772510000  
H 4.3535430000 22.0670850000 18.6929000000  
O 2.7697470000 11.9779230000 16.7648950000  
H 2.4987850000 11.4502410000 16.9454530000  
H 3.1945800000 12.2478820000 17.1268340000  
O 19.1648920000 13.1208860000 14.0863030000  
H 19.6325960000 13.1413810000 13.6797300000  
H 18.8702730000 13.6423430000 14.2464410000  
O 16.6277910000 15.0052910000 3.7878450000  
H 16.9892590000 14.5014960000 3.7881700000  
H 16.8833030000 15.5701550000 3.7899280000  
O 14.7732640000 10.7752320000 7.6277330000  
H 14.9905030000 10.7035900000 7.0514140000  
H 15.1590450000 10.7364160000 8.1114980000  
O 17.7529250000 22.4032410000 12.5995940000  
H 17.1459790000 22.4999090000 12.6816970000  
H 17.9766350000 21.8250790000 12.5929530000  
O 18.2118610000 7.5049120000 11.4006440000  
H 18.7456420000 7.1903520000 11.4251160000  
H 18.2175980000 8.1192220000 11.3172700000  
O 9.9436000000 9.3121760000 4.8336750000  
H 10.2565390000 9.8194520000 5.0045840000  
H 9.3249940000 9.3276920000 4.7956400000  
O 20.0080680000 7.6052000000 16.7830550000  
H 19.4456610000 7.7114420000 16.5445600000  
H 20.0752330000 7.2064240000 17.2529790000  
O 20.5074920000 6.8057660000 14.7953490000  
H 20.0496670000 6.4728250000 14.5423360000  
H 21.0635440000 6.8262360000 14.5219460000  
O 22.4896790000 16.6934100000 18.3825580000  
H 22.3446890000 16.5985400000 18.9779120000  
H 22.5000000000 17.2696320000 18.1540340000  
O 6.8027690000 7.0055990000 16.4072440000  
H 6.6583810000 7.3106160000 16.9274220000  
H 6.3538610000 6.8193040000 16.0223580000  
O 13.9120030000 9.8107600000 16.3380880000  
H 13.5513850000 9.9699590000 16.8167100000  
H 14.4766580000 10.0598460000 16.2790760000  
O 10.3878750000 20.8465690000 19.1346930000  
H 10.6051570000 21.4268780000 19.1123640000  
H 10.5573690000 20.4696600000 19.5968330000  
O 9.2538750000 17.9176850000 7.8967200000  
H 9.0098300000 17.6318070000 8.3898570000  
H 9.6465870000 17.6140820000 7.5252840000  
O 2.8107010000 12.4800950000 19.8682250000  
H 2.4998830000 13.0161010000 19.8445620000  
H 2.5021970000 11.9449200000 19.9208960000  
O 9.3737780000 5.1340970000 13.2944460000  
H 8.7829710000 5.2047730000 13.4688630000  
H 9.6979340000 5.6224750000 13.0925260000  
O 6.7716490000 15.3175910000 12.6899670000  
H 6.8205010000 15.0721300000 13.2572690000  
H 6.7664040000 14.9484740000 12.1918850000  
O 7.7061370000 19.7253380000 8.4572960000  
H 7.4724470000 19.1979300000 8.2299210000  
H 8.2925200000 19.7435470000 8.6577580000  
O 18.7248840000 16.7883690000 15.1660520000  
H 19.1898400000 16.4422170000 14.9459090000  
H 18.5654070000 17.3132010000 14.8771240000  
O 16.6523350000 22.4970850000 16.6456870000  
H 16.0348060000 22.4913040000 16.7013130000  
H 16.9500240000 21.9926310000 16.4425390000  
O 22.0390200000 14.8799560000 11.5153790000  
H 21.6611090000 15.3714870000 11.5224370000  
H 22.4986030000 14.8482070000 11.1004850000  
O 15.4231810000 8.0320710000 12.5330680000  
H 15.3805620000 7.4649970000 12.2859270000  
H 15.9747420000 8.2517680000 12.7116050000  
O 20.9646350000 15.9225190000 6.5421600000  
H 21.0594930000 15.3104710000 6.5716180000  
H 20.4828330000 16.1465240000 6.2227070000  
O 10.9357900000 16.9261360000 22.4944890000  
H 10.6969990000 16.3539370000 22.5004410000  
H 10.5596910000 17.4189920000 22.4923990000  
O 9.4665930000 3.4953660000 16.3021200000  
H 8.8554950000 3.4084970000 16.2431170000  
H 9.6939400000 4.0692000000 16.3603450000  
O 12.1910810000 11.7129720000 18.1466580000  
H 11.8903660000 12.2551800000 18.1396090000  
H 12.8106080000 11.7023350000 18.1674990000  
O 5.0225580000 19.1997540000 6.9362530000  
H 4.9108840000 18.6406870000 7.1800630000  
H 4.5621580000 19.6111870000 6.8804260000  
O 21.7635710000 14.0462220000 2.6360300000  
H 21.6652640000 14.6576730000 2.6054850000  
H 21.2826580000 13.6551520000 2.6482120000  
O 11.5528580000 8.5495510000 3.5420960000  
H 11.9852930000 8.5846450000 3.9850830000  
H 11.6849130000 8.2776200000 3.0008220000  
O 6.9396300000 17.4436420000 12.1525610000  
H 6.8280450000 17.8620490000 12.5963560000  
H 7.4883190000 17.4366200000 11.8640240000  
O 17.2375430000 2.7851840000 9.5719910000  
H 17.7152120000 2.4999770000 9.2982070000  
H 16.9217440000 2.4983830000 10.0218560000  
O 17.5150030000 8.7001560000 16.1785260000  
H 17.2150840000 9.0201840000 16.6168170000  
H 17.3593910000 8.7700080000 15.5824830000  
O 20.1268230000 2.5000200000 14.4126970000  
H 20.0602030000 2.4999350000 15.0291630000  
H 20.6866130000 2.5886040000 14.1614020000  
O 15.9313610000 21.4447430000 11.1201260000  
H 16.2724030000 21.8211030000 10.7644390000  
H 15.8865330000 20.8424300000 10.9802290000  
O 22.1821550000 19.5909410000 16.3621780000  
H 22.5001330000 19.1699160000 16.6879020000  
H 21.5769720000 19.5082580000 16.2559780000  
O 13.9046920000 18.9214190000 11.3356480000  
H 14.4517720000 18.6826130000 11.5034090000  
H 13.4341390000 18.5453290000 11.1890270000  
O 5.6584720000 14.4066250000 17.6245520000  
H 5.0404780000 14.3575170000 17.6363860000  
H 5.9948450000 14.2032380000 18.1039770000  
O 9.3417620000 19.4196810000 17.1293280000  
H 9.0751200000 18.9233480000 16.8704390000  
H 9.5348590000 19.3961680000 17.7179900000  
O 22.1936120000 8.1616100000 12.1182520000  
H 22.4999600000 7.6513190000 12.2921020000  
H 22.5000270000 8.6335940000 11.8580550000  
O 19.5190940000 6.2177290000 9.0805850000  
H 19.7139220000 6.7155940000 8.7665120000  
H 19.8521280000 6.0017560000 9.5568250000  
O 21.3953130000 8.7141400000 18.6254210000  
H 21.7260770000 8.2476480000 18.8651080000  
H 21.3843920000 8.8032550000 18.0119870000  
O 11.4441480000 6.9375220000 13.3418480000  
H 11.9367090000 7.0245820000 13.7082810000  
H 11.0088700000 7.3768110000 13.2980230000  
O 6.9305270000 13.7988390000 15.2376880000  
H 7.3590290000 14.2467870000 15.2236300000  
H 6.8353740000 13.4450630000 14.7375380000  
O 5.1634830000 12.1301750000 19.2895940000  
H 5.1819320000 12.6080410000 19.6842750000  
H 5.2117400000 12.2298820000 18.6796020000  
O 10.4637650000 9.1690980000 20.4043290000  
H 10.8957510000 9.6061900000 20.4868370000  
H 10.0920980000 9.1902470000 19.9085690000  
O 3.8770560000 2.5088140000 10.2108530000  
H 4.4183440000 2.6754950000 10.4632290000  
H 3.3446050000 2.6929960000 10.4695720000  
O 19.8235250000 11.6474180000 4.7763820000  
H 19.5440510000 11.8620180000 4.2661750000  
H 20.1143280000 11.1000320000 4.7635910000  
O 21.8459060000 21.7105600000 17.6985080000  
H 21.6421740000 22.1393930000 17.2996790000  
H 21.4411090000 21.3823500000 18.0343350000  
O 2.9763280000 14.7945750000 18.2596690000  
H 2.4974990000 15.1758280000 18.3588530000  
H 2.8771070000 14.2219910000 18.0436500000  
O 3.3242030000 10.1666260000 12.8169630000  
H 3.4068230000 9.7594120000 13.2772010000  
H 3.5894840000 10.0688760000 12.2652090000  
O 14.7868340000 6.5891430000 6.2802420000  
H 14.2664090000 6.8670130000 6.0894130000  
H 14.9250460000 6.0188530000 6.0801680000  
O 21.1076180000 22.1940100000 8.7583760000  
H 21.6362220000 22.4975000000 8.8721330000  
H 21.0952000000 21.5745130000 8.7791250000  
O 12.2257740000 22.0827310000 5.7479860000  
H 12.6843740000 22.4796620000 5.8768320000  
H 11.6713010000 22.1519130000 6.0165660000  
O 6.5481340000 8.6896970000 7.4496430000  
H 6.5475590000 8.7764790000 8.0635960000  
H 6.6289670000 9.1719210000 7.0684780000  
O 3.5830760000 16.3388710000 19.8778140000  
H 3.6120340000 16.2290720000 20.4873840000  
H 3.4543770000 16.9090940000 19.6713100000  
O 9.4625540000 13.9359480000 22.4554010000  
H 9.4594600000 13.3192980000 22.3905740000  
H 10.0008490000 14.2402630000 22.5000420000  
O 3.5322430000 13.4317400000 2.7629260000  
H 3.2158650000 12.9963810000 3.0708800000  
H 3.3337230000 14.0190620000 2.7651120000  
O 2.5254670000 21.4574210000 4.9040970000  
H 2.6852060000 21.4545670000 5.5032160000  
H 2.4994820000 20.9249240000 4.5876590000  
O 10.2101460000 22.2061350000 10.7851350000  
H 9.7550070000 22.5163000000 10.5003300000  
H 10.7225000000 22.5045530000 10.9662490000  
O 11.3194460000 11.2270120000 2.9419160000  
H 10.7854270000 11.1093340000 3.2342250000  
H 11.8477120000 10.9770040000 3.1487800000  
O 10.9774520000 21.0057660000 15.1477450000  
H 10.4529580000 20.7179740000 14.9847980000  
H 11.4936510000 20.6769360000 15.2465920000  
O 14.3876940000 13.3584560000 18.2068010000  
H 14.2498920000 13.9500590000 18.0823600000  
H 14.4342720000 13.1681220000 18.7949880000  
O 9.1957190000 22.3131110000 6.4833230000  
H 9.2812100000 22.5053820000 5.9000620000  
H 9.5783690000 22.5044270000 6.9320300000  
O 20.8946670000 14.2548930000 19.1527180000  
H 21.3207280000 13.8586190000 18.9384570000  
H 20.9044450000 14.8479720000 18.9723760000  
O 12.4840040000 22.0356450000 20.4382280000  
H 12.0983180000 22.5052850000 20.3151270000  
H 12.2566320000 21.4737420000 20.5683390000  
O 9.8300550000 11.1239160000 18.8942010000  
H 10.0907750000 10.9944770000 18.3467160000  
H 10.1750230000 11.3537050000 19.3552390000  
O 10.2146550000 18.8683290000 10.0841550000  
H 9.6014820000 18.8192480000 10.1621210000  
H 10.4748100000 19.4269910000 10.0164960000  
O 6.5307180000 17.6440920000 22.5036330000  
H 6.9952560000 18.0045020000 22.3067130000  
H 6.3949030000 17.1204010000 22.2008730000  
O 18.4498710000 17.2380480000 2.7196810000  
H 18.7717350000 17.2926530000 3.2468350000  
H 18.2918360000 16.6765340000 2.5097080000  
O 16.9539720000 19.7690890000 20.3814290000  
H 17.2151740000 19.2091350000 20.3295220000  
H 16.6126880000 19.9962700000 19.9163750000  
O 18.2324240000 13.7342760000 11.9542550000  
H 17.9797820000 14.1763900000 12.3080570000  
H 18.7740740000 13.8362080000 11.6703760000  
O 11.2814360000 7.2849130000 6.8491250000  
H 11.8618770000 7.1857970000 6.6548750000  
H 11.0949580000 7.8595810000 6.9882090000  
O 12.7410310000 18.0526830000 13.8550340000  
H 12.8430340000 18.3044710000 13.2976590000  
H 12.3989060000 18.3555200000 14.2740840000  
O 10.4676880000 14.9304190000 2.7461020000  
H 10.9691920000 14.6618510000 2.4994570000  
H 10.2409120000 15.4510690000 2.4973900000  
O 16.0191100000 5.5547550000 22.4907480000  
H 16.4564850000 5.9932820000 22.4613040000  
H 16.1803910000 4.9562050000 22.5000830000  
O 5.8600360000 5.4033670000 20.9752120000  
H 5.5222550000 5.7002420000 20.5483190000  
H 6.4481430000 5.5711870000 21.0768430000  
O 16.7233900000 15.2951110000 21.7414080000  
H 16.7573420000 15.8822430000 21.5449600000  
H 16.7247320000 15.1708800000 22.3488010000  
O 3.5306320000 4.8729900000 7.7169470000  
H 4.1178730000 4.7163150000 7.8397060000  
H 3.4084130000 5.3844700000 7.3885990000  
O 17.2069370000 15.2913630000 14.4299980000  
H 16.9591160000 14.7234520000 14.4069350000  
H 17.3936760000 15.5695190000 13.9083480000  
O 3.2448780000 7.9476830000 6.3645340000  
H 3.8128990000 7.9251880000 6.1169160000  
H 2.8837550000 8.4421840000 6.2674730000  
O 9.1899220000 9.1991270000 22.5008680000  
H 9.8039850000 9.1131400000 22.5020130000  
H 8.8084660000 8.7104030000 22.4995580000  
O 16.7924230000 14.1145300000 16.7560370000  
H 16.2423500000 13.8418280000 16.8427680000  
H 16.8998620000 14.6777000000 16.9919550000  
O 19.7181950000 15.3783480000 12.9243480000  
H 19.3490970000 15.8419980000 12.7419630000  
H 20.2300810000 15.5002370000 13.2521850000  
O 15.8635220000 2.5016990000 5.5740710000  
H 15.5144350000 2.5573510000 6.0834920000  
H 16.1269670000 3.0033540000 5.3224760000  
O 2.6937140000 12.2999880000 14.3499760000  
H 2.5822920000 12.8951880000 14.2165910000  
H 2.4991040000 11.8544150000 13.9653290000  
O 16.8347740000 5.6977900000 12.1163070000  
H 16.7232380000 5.8911720000 11.5378330000  
H 16.7516670000 5.1017720000 12.2653640000  
O 18.0070410000 6.9001150000 18.0225210000  
H 17.5223350000 7.1106970000 17.6982000000  
H 18.0899760000 6.2900210000 18.0951070000  
O 5.0490150000 13.6811800000 7.8420730000  
H 4.9110820000 13.1645230000 8.1559350000  
H 4.8581830000 14.2321440000 8.0527450000  
O 7.2500800000 14.9954400000 19.7274400000  
H 7.8256130000 14.9744610000 19.9572030000  
H 7.0153050000 15.5334880000 19.5280740000  
O 15.5404180000 22.3521420000 18.9847500000  
H 15.4582750000 22.4999020000 19.5813140000  
H 15.8613900000 21.8440200000 18.8325960000  
O 8.9629150000 15.0265660000 12.2600340000  
H 8.8921470000 14.4315450000 12.4194400000  
H 8.9655470000 15.4663560000 12.6970000000  
O 18.5255420000 20.0211550000 13.7825460000  
H 18.1888280000 19.7635330000 13.3300820000  
H 19.1274850000 19.8834250000 13.8378330000  
O 19.5766630000 4.4868910000 17.1138640000  
H 19.0064440000 4.6573780000 16.9399280000  
H 19.6839730000 3.9040330000 17.2958600000  
O 11.4053290000 18.5707890000 16.8309470000  
H 11.5833990000 18.6534010000 17.4191100000  
H 11.8263630000 18.4402040000 16.3950120000  
O 14.4173850000 16.2769450000 13.9332800000  
H 14.5496690000 16.7283760000 13.5293240000  
H 14.6014300000 15.6958620000 13.8200070000  
O 11.5873190000 16.0370340000 7.2032910000  
H 11.4648880000 15.9708480000 6.5990560000  
H 12.1718700000 16.0018490000 7.4068160000  
O 17.6855870000 19.9896970000 7.8483400000  
H 17.9130390000 19.8892260000 8.4163540000  
H 17.7841330000 19.5759260000 7.3972920000  
O 2.7837530000 4.8254100000 10.2031640000  
H 2.5381860000 4.9059010000 10.7668020000  
H 3.3957330000 4.8807910000 10.1208570000  
O 5.2473010000 14.8467210000 21.0710270000  
H 5.5351650000 15.3903550000 21.1489070000  
H 5.5789190000 14.3282020000 20.9966630000  
O 6.6844610000 3.4632170000 11.1426230000  
H 6.9595750000 3.9505390000 11.4096410000  
H 7.0242600000 2.9798870000 10.9547650000  
O 16.5141310000 5.3179170000 20.2929730000  
H 16.9838200000 4.9137780000 20.3160500000  
H 15.9317740000 5.1133950000 20.2347310000  
O 19.6274810000 10.6649880000 18.2182000000  
H 20.1849360000 10.9225330000 18.3041240000  
H 19.5828610000 10.0645800000 18.0702790000  
O 6.4108200000 16.5227440000 7.9765690000  
H 6.3691720000 17.0775660000 8.2502600000  
H 5.8980120000 16.2339500000 7.7816650000  
O 19.3476150000 9.2427240000 2.8757070000  
H 19.4528600000 9.4695660000 3.4431000000  
H 18.9284730000 8.7932010000 2.7944030000  
O 12.4813070000 17.2354930000 20.5204030000  
H 12.0247920000 16.8208750000 20.5848640000  
H 12.5158190000 17.5812670000 20.0069720000  
O 16.8832180000 2.9318560000 12.6008990000  
H 16.7473320000 3.1020580000 13.1814460000  
H 17.4548070000 3.0202720000 12.3776740000  
O 18.8340410000 22.2074390000 14.5825230000  
H 18.5969560000 22.4999910000 15.0751420000  
H 19.2757720000 22.4796950000 14.2432420000  
O 11.8274510000 4.6040300000 7.4058560000  
H 12.4444060000 4.6652800000 7.3967110000  
H 11.4653980000 5.0995070000 7.3176390000  
O 6.9102990000 11.2900260000 15.1709480000  
H 7.2020740000 11.0603150000 14.6743910000  
H 6.3493900000 11.0769840000 15.3270110000  
O 10.5903630000 13.2402220000 11.6890960000  
H 11.1170030000 13.0881980000 11.9789370000  
H 10.1536740000 12.8105440000 11.5940130000  
O 21.5950630000 4.3196840000 2.8953130000  
H 21.8526760000 4.8575570000 3.0650090000  
H 21.5328570000 3.8617360000 3.3085630000  
O 19.2269180000 14.6974770000 3.9747500000  
H 19.3949720000 15.2912790000 3.9145270000  