&CONTROL
   calculation      = 'md'
   restart_mode     = 'from_scratch'
   nstep            = 200
   tprnfor          = .true.
   dt               = 20
   outdir           = '.'
   prefix           = 'elec'
   pseudo_dir       = '/home/ebarquero/practicas/pseudo/'
/
&SYSTEM
   ibrav            = 0
   ecutwfc          = 50
   ecutrho          = 330
   occupations      = 'smearing'
   degauss          = 0.02
   smearing         = 'mp'
   ntyp             = 5
   nat              = 392
/
&ELECTRONS
   conv_thr         = 1e-08
/
&IONS
   ion_dynamics     = 'verlet'
   ion_temperature  = 'berendsen'
   tempw            = 300.0
/
&CELL
/
&FCP
/
&RISM
/
ATOMIC_SPECIES
Cl 35.45 Cl.pbe-n-kjpaw_psl.1.0.0.UPF
Al 26.9815385 Al.pbe-n-kjpaw_psl.1.0.0.UPF
N 14.007 N.pbe-n-kjpaw_psl.1.0.0.UPF
C 12.011 C.pbe-n-kjpaw_psl.1.0.0.UPF
H 1.008 H.pbe-kjpaw_psl.1.0.0.UPF

K_POINTS automatic
1 1 1  0 0 0

CELL_PARAMETERS angstrom
25.00000000000000 0.00000000000000 0.00000000000000
0.00000000000000 25.00000000000000 0.00000000000000
0.00000000000000 0.00000000000000 7.40000000000000

ATOMIC_POSITIONS angstrom
Cl 21.0324190000 9.2103210000 3.6022080000  
Cl 19.3452740000 11.7237250000 1.2569280000  
Cl 23.1229190000 11.1365760000 1.0364090000  
Al 21.1668700000 10.6902070000 1.9651820000  
Cl 16.5183420000 13.8567430000 4.7308080000  
Cl 18.7187120000 16.5351070000 3.1033150000  
Cl 17.7936510000 13.3723030000 1.1526970000  
Al 17.6769010000 14.5880510000 2.9956070000  
Cl 4.6348070000 5.8168400000 6.0612050000  
Cl 4.9810540000 4.4887880000 2.4862380000  
Cl 7.0267680000 7.5256620000 3.6071410000  
Al 5.5475430000 5.9437630000 4.0515280000  
Cl 1.2414460000 11.6194760000 4.7328800000  
Cl 3.0094110000 9.3302640000 2.2233370000  
Cl 4.4484090000 9.7864840000 5.7425870000  
Al 2.8997550000 10.2454080000 4.2329350000  
Cl 6.1004150000 5.4453630000 0.9018700000  
Cl 7.4783320000 1.8725010000 0.9019030000  
Cl 3.6951870000 2.4656220000 0.9018260000  
Al 5.7579780000 3.2611620000 0.9018660000  
Cl 5.1295200000 21.0371520000 6.1167460000  
Cl 8.9392740000 20.6553710000 6.0533700000  
Cl 7.3680710000 24.1376840000 6.3156610000  
Al 7.1456210000 21.9434020000 6.1619260000  
Cl 21.0787170000 17.6387410000 1.7734010000  
Cl 24.4862700000 19.1517550000 0.8996890000  
Cl 24.2862260000 16.0396420000 3.1220120000  
Al 23.2837380000 17.6100460000 1.9317010000  
Cl 9.7599610000 15.4036480000 3.8869870000  
Cl 11.3678300000 17.2416530000 0.9373280000  
Cl 9.0790310000 19.1341950000 3.3546950000  
Al 10.0689410000 17.2598320000 2.7263360000  
Cl 12.9317530000 16.5306700000 4.3703540000  
Cl 14.5266890000 16.7969580000 0.8991480000  
Cl 13.1966860000 19.9370910000 2.6411680000  
Al 13.5517090000 17.7549060000 2.6368900000  
Cl 0.4843540000 16.9183910000 1.7759260000  
Cl 0.5197890000 15.4695980000 5.3204630000  
Cl 0.9969090000 13.1603080000 2.3032590000  
Al 0.6670180000 15.1827660000 3.1332160000  
Cl 14.8412560000 14.5626940000 0.9018650000  
Cl 11.6533630000 15.4278410000 2.8390930000  
Cl 11.8818000000 12.1325500000 0.9018660000  
Al 12.7921400000 14.0410280000 1.5476080000  
Cl 9.1469030000 10.5084490000 5.6420580000  
Cl 5.9204160000 8.5596780000 6.3173880000  
Cl 9.3094510000 6.7924230000 6.5523890000  
Al 8.1255900000 8.6201830000 6.1706120000  
Cl 15.2621930000 21.3216160000 6.0320160000  
Cl 14.7267860000 24.5039940000 3.9705090000  
Cl 12.0763420000 23.3937650000 6.5016200000  
Al 14.0217740000 23.0731250000 5.5013820000  
N 10.8948820000 4.1196880000 2.5227590000  
N 11.8221790000 2.8662360000 4.0300490000  
C 9.9197820000 4.5888240000 1.5257400000  
C 10.8369840000 2.9118670000 3.1160380000  
C 11.9384390000 4.8532280000 3.0693710000  
C 12.5243030000 4.0607660000 4.0157650000  
C 8.7366070000 5.3046150000 2.1667500000  
C 12.0487240000 1.7038340000 4.8946090000  
H 10.4560230000 5.2473310000 0.8297520000  
H 9.5845780000 3.7022900000 0.9734780000  
H 10.0674240000 2.0694050000 3.0164070000  
H 12.1830990000 5.8548240000 2.7371430000  
H 13.3709310000 4.2445940000 4.6652800000  
H 8.2031000000 4.6324970000 2.8500350000  
H 8.0335050000 5.6235920000 1.3863010000  
H 9.0605900000 6.1934230000 2.7243160000  
H 11.2185330000 1.0001440000 4.7121100000  
H 13.0094000000 1.2383960000 4.6450790000  
H 12.0501620000 2.0250060000 5.9430450000  
Cl 8.9944080000 0.5496350000 3.5253970000  
N 16.8916580000 8.5272480000 5.8842720000  
N 16.9194490000 6.3648430000 5.7224870000  
C 17.3752400000 9.9166730000 5.9089020000  
C 17.7023340000 7.4532310000 5.8254950000  
C 15.5691280000 8.1117630000 5.8197550000  
C 15.5881050000 6.7490450000 5.7221260000  
C 17.5322660000 10.4988990000 4.5090770000  
C 17.4603130000 5.0067620000 5.6082640000  
H 16.6622140000 10.4996750000 6.5066370000  
H 18.3378730000 9.9045130000 6.4347200000  
H 18.8432160000 7.3845920000 5.7508790000  
H 14.7379630000 8.8051850000 5.8617020000  
H 14.7773630000 6.0341820000 5.6580190000  
H 18.2555600000 9.9146450000 3.9270610000  
H 17.9057040000 11.5288530000 4.5793500000  
H 16.5745300000 10.5143880000 3.9721170000  
H 18.5554390000 5.1032860000 5.5129510000  
H 17.2015310000 4.4286680000 6.5030450000  
H 17.0432220000 4.5228250000 4.7170770000  
Cl 20.5709720000 6.6662070000 5.2829960000  
N 9.5794020000 12.8974200000 4.2058570000  
N 8.1350530000 13.6864690000 2.7936950000  
C 10.8763580000 12.5978920000 4.8328710000  
C 9.4481590000 13.4835370000 3.0002840000  
C 8.3251800000 12.7230820000 4.7736680000  
C 7.4160440000 13.2167540000 3.8811140000  
C 11.3875090000 13.7541980000 5.6842430000  
C 7.6129540000 14.3341740000 1.5862780000  
H 10.7463190000 11.6871680000 5.4322500000  
H 11.5757420000 12.3774500000 4.0170500000  
H 10.2409160000 13.8785140000 2.2740470000  
H 8.1835300000 12.2583400000 5.7418520000  
H 6.3354590000 13.2671430000 3.9284430000  
H 11.5242380000 14.6536210000 5.0713870000  
H 12.3598830000 13.4884500000 6.1190620000  
H 10.6939920000 13.9852050000 6.5036910000  
H 8.4839630000 14.6874980000 1.0081700000  
H 7.0301930000 13.6128010000 1.0016360000  
H 6.9790860000 15.1816750000 1.8732060000  
Cl 11.0255250000 14.9822380000 0.9006150000  
N 10.7808280000 7.1220460000 5.2394460000  
N 9.7039440000 5.2425460000 5.3430970000  
C 11.8907200000 8.0843120000 5.3239610000  
C 10.8624060000 5.8459100000 5.6625120000  
C 9.5458920000 7.3326710000 4.6424180000  
C 8.8670000000 6.1489800000 4.7122360000  
C 12.7763020000 8.0555590000 4.0837700000  
C 9.4411790000 3.8285040000 5.6284140000  
H 11.4498380000 9.0781320000 5.4773540000  
H 12.4672490000 7.8203850000 6.2190880000  
H 11.7425620000 5.2639200000 6.1080500000  
H 9.2511530000 8.2928700000 4.2367380000  
H 7.8729720000 5.8838990000 4.3744740000  
H 13.2194650000 7.0612220000 3.9490490000  
H 13.5939260000 8.7789750000 4.1993470000  
H 12.2089800000 8.3165620000 3.1805280000  
H 10.3801440000 3.3986140000 6.0173120000  
H 8.6415700000 3.7434800000 6.3735250000  
H 9.1455890000 3.3195190000 4.7032460000  
Cl 12.8632380000 3.7529490000 6.5337110000  
N 1.7542870000 22.2788680000 3.2202360000  
N 1.8767040000 20.6797070000 4.6799070000  
C 2.0186320000 23.5638560000 2.5539890000  
C 2.2371040000 21.9516760000 4.4343180000  
C 1.0724780000 21.1942840000 2.6866720000  
C 1.1468260000 20.1890540000 3.6091020000  
C 3.2797670000 23.5229260000 1.6989930000  
C 2.2531110000 19.9716470000 5.9074800000  
H 1.1341260000 23.8063160000 1.9502950000  
H 2.1116640000 24.3153960000 3.3476070000  
H 2.9283770000 22.5297460000 5.1413320000  
H 0.5874860000 21.2299750000 1.7187170000  
H 0.7434160000 19.1843450000 3.5929040000  
H 4.1568220000 23.2916420000 2.3158660000  
H 3.4406240000 24.5044810000 1.2343710000  
H 3.1987700000 22.7722230000 0.9016800000  
H 2.9384950000 20.6337830000 6.4638310000  
H 1.3568670000 19.7588740000 6.5018440000  
H 2.7595140000 19.0347680000 5.6463560000  
Cl 4.2631890000 22.8250650000 6.5019180000  
N 17.5613220000 1.5444070000 4.8540440000  
N 16.1006250000 1.8199880000 3.2750060000  
C 18.8508610000 1.2815140000 5.5120200000  
C 17.3539850000 1.4053450000 3.5304750000  
C 16.4165510000 2.0547800000 5.4497740000  
C 15.4958410000 2.2238890000 4.4544910000  
C 19.7397020000 2.5188920000 5.5568860000  
C 15.5307780000 1.8371420000 1.9241000000  
H 18.6320670000 0.9096970000 6.5217060000  
H 19.3341190000 0.4765360000 4.9447730000  
H 18.0758270000 1.1141910000 2.6901970000  
H 16.3469820000 2.2394800000 6.5148920000  
H 14.4766940000 2.5879690000 4.4895340000  
H 19.9601470000 2.8726330000 4.5422340000  
H 20.6914950000 2.2700480000 6.0440890000  
H 19.2649990000 3.3326280000 6.1210800000  
H 16.3443680000 1.5701750000 1.2280380000  
H 14.7134880000 1.1095260000 1.8577150000  
H 15.1550140000 2.8427160000 1.7005070000  
Cl 18.8316510000 1.0461000000 0.9170000000  
N 15.2647720000 17.5858160000 4.5568710000  
N 15.3870150000 18.9488970000 2.8746070000  
C 15.3625220000 16.3416130000 5.3362040000  
C 15.4609240000 17.6530750000 3.2260200000  
C 15.0601000000 18.8633640000 5.0587240000  
C 15.1331830000 19.7205320000 3.9972090000  
C 16.7769030000 16.0874330000 5.8442130000  
C 15.5790100000 19.4088810000 1.4956520000  
H 14.6477160000 16.4194680000 6.1660080000  
H 15.0359830000 15.5302620000 4.6741020000  
H 15.7569330000 16.8405800000 2.4749400000  
H 14.8690600000 19.0534030000 6.1079230000  
H 15.0228880000 20.7966350000 3.9494560000  
H 17.4782930000 15.9999600000 5.0053750000  
H 16.8013140000 15.1451660000 6.4070070000  
H 17.1153900000 16.8948050000 6.5070870000  
H 15.8895100000 18.5309170000 0.9036460000  
H 14.6398130000 19.8211420000 1.1086810000  
H 16.3613310000 20.1769140000 1.4739350000  
Cl 16.5412260000 16.0543850000 0.8979440000  
N 15.3996460000 10.5245120000 1.7035920000  
N 15.1595660000 8.3706480000 1.7821610000  
C 15.0490890000 11.9510950000 1.6203450000  
C 14.5108870000 9.5246990000 1.5466020000  
C 16.6363610000 9.9941230000 2.0428530000  
C 16.4846020000 8.6369790000 2.0878280000  
C 14.6339330000 12.5239800000 2.9703820000  
C 14.4974050000 7.0634870000 1.7288780000  
H 15.9221920000 12.4783560000 1.2138110000  
H 14.2292830000 12.0309150000 0.8958830000  
H 13.3801580000 9.5549300000 1.3665220000  
H 17.5101070000 10.6127980000 2.2078920000  
H 17.1995830000 7.8531240000 2.3041970000  
H 13.7542340000 11.9966010000 3.3592930000  
H 14.3710580000 13.5835590000 2.8546710000  
H 15.4467830000 12.4477380000 3.7047430000  
H 13.4200840000 7.2539250000 1.5846050000  
H 14.8998220000 6.4783300000 0.8937450000  
H 14.6654760000 6.5317790000 2.6730240000  
Cl 11.5387570000 8.9834280000 1.4190630000  
N 20.4580060000 14.5634150000 2.7337820000  
N 19.9121640000 15.6149620000 4.5501650000  
C 21.1997860000 14.2071840000 1.5140190000  
C 20.7094230000 15.6639600000 3.4684610000  
C 19.4807270000 13.8030740000 3.3604250000  
C 19.1348320000 14.4688570000 4.5023460000  
C 22.4248390000 13.3506630000 1.8119640000  
C 19.9305140000 16.6423810000 5.5961270000  
H 20.5001950000 13.6859740000 0.8473130000  
H 21.4923290000 15.1510990000 1.0378470000  
H 21.5068610000 16.4765850000 3.3434680000  
H 19.1083320000 12.8750890000 2.9437770000  
H 18.4089810000 14.2270280000 5.2685710000  
H 23.1204250000 13.8873560000 2.4687520000  
H 22.9499370000 13.1221530000 0.8753460000  
H 22.1440980000 12.4032010000 2.2908410000  
H 20.7623900000 17.3277760000 5.3596570000  
H 18.9766120000 17.1826040000 5.6012870000  
H 20.0960350000 16.1669190000 6.5702480000  
Cl 22.7610930000 17.8525800000 3.8471280000  
N 20.4291180000 22.8113880000 3.4141760000  
N 18.5929210000 23.2655240000 4.4748770000  
C 21.3581960000 22.5845090000 2.2960090000  
C 19.1034630000 22.9939120000 3.2609240000  
C 20.7653500000 22.9678570000 4.7514650000  
C 19.6070030000 23.2497230000 5.4190550000  
C 21.9160590000 23.8871420000 1.7346810000  
C 17.1707640000 23.5490020000 4.6918400000  
H 22.1605550000 21.9325120000 2.6657450000  
H 20.7967690000 22.0392750000 1.5273630000  
H 18.4637200000 23.0461380000 2.3122970000  
H 21.7797320000 22.8544220000 5.1142210000  
H 19.4244170000 23.4326670000 6.4705470000  
H 21.1057170000 24.5234640000 1.3582620000  
H 22.5916900000 23.6670440000 0.8978540000  
H 22.4789320000 24.4428220000 2.4964010000  
H 16.6971950000 23.6004610000 3.6964570000  
H 16.7208790000 22.7487160000 5.2909570000  
H 17.0663010000 24.5088300000 5.2116390000  
Cl 17.0089830000 23.5604020000 1.1549690000  
N 5.5207190000 11.0621970000 4.3085310000  
N 4.2071220000 12.7792060000 4.4796550000  
C 6.2470030000 9.9336130000 3.7054000000  
C 4.5814570000 11.7793060000 3.6622320000  
C 5.7445780000 11.6165800000 5.5608980000  
C 4.9133450000 12.6955970000 5.6689170000  
C 7.5192440000 10.3790280000 2.9939480000  
C 3.2118210000 13.7857480000 4.0972740000  
H 6.4679980000 9.2203600000 4.5103940000  
H 5.5550650000 9.4558000000 3.0009760000  
H 4.1971940000 11.7045450000 2.5858280000  
H 6.4534480000 11.1980270000 6.2649890000  
H 4.7663950000 13.3953510000 6.4820540000  
H 7.2833060000 11.0814890000 2.1851640000  
H 8.0173830000 9.5065260000 2.5514590000  
H 8.2192090000 10.8608040000 3.6894800000  
H 2.9651190000 13.6078710000 3.0365190000  
H 2.3181170000 13.6791960000 4.7231610000  
H 3.6398630000 14.7872490000 4.2243490000  
Cl 3.4533290000 12.2800620000 0.9019110000  
N 20.0336420000 3.6539090000 2.7028580000  
N 22.1278060000 3.8853710000 2.1892000000  
C 18.6152340000 3.9903900000 2.9025020000  
C 20.9801440000 4.5580570000 2.3853480000  
C 20.5923990000 2.3836310000 2.7106000000  
C 21.9125830000 2.5314710000 2.3909900000  
C 17.8151320000 3.9133810000 1.6074880000  
C 23.3775220000 4.5458140000 1.7993420000  
H 18.2194030000 3.2995770000 3.6585970000  
H 18.5889440000 5.0063030000 3.3154510000  
H 20.8976490000 5.6820970000 2.1813420000  
H 20.0193110000 1.4965980000 2.9517880000  
H 22.7029520000 1.7973890000 2.2967340000  
H 18.2132990000 4.6163870000 0.8655340000  
H 16.7696670000 4.1839640000 1.8049410000  
H 17.8358910000 2.9005910000 1.1836370000  
H 23.1354270000 5.6050530000 1.6067160000  
H 24.1102690000 4.4600050000 2.6102140000  
H 23.7695400000 4.0749110000 0.8899770000  
Cl 21.3224410000 7.4044280000 1.4242020000  
N 20.0062760000 19.5918180000 2.9053150000  
N 22.1572790000 19.8676570000 2.9117100000  
C 18.6457200000 19.3320340000 3.4016590000  
C 21.1158340000 19.4577810000 3.6570300000  
C 20.3510280000 20.0940740000 1.6584150000  
C 21.7068390000 20.2633460000 1.6624620000  
C 18.0067170000 20.5733780000 4.0131280000  
C 23.5339990000 19.8882460000 3.4158770000  
H 18.0563730000 18.9546140000 2.5556050000  
H 18.7312190000 18.5319270000 4.1471890000  
H 21.2383210000 19.1738520000 4.7598780000  
H 19.6193280000 20.2736110000 0.8800760000  
H 22.3760830000 20.6224480000 0.8907110000  
H 18.5985730000 20.9327540000 4.8638950000  
H 17.0013730000 20.3268230000 4.3787700000  
H 17.9176170000 21.3822970000 3.2758800000  
H 23.4884320000 19.6282830000 4.4873450000  
H 24.1399050000 19.1570880000 2.8680800000  
H 23.9536730000 20.8930390000 3.2868900000  
Cl 22.0200300000 19.1173710000 6.5222270000  
N 23.8567270000 10.5253990000 4.5055130000  
N 23.7716090000 8.4024590000 4.0709760000  
C 23.6756400000 11.9765930000 4.3436400000  
C 23.5795110000 9.6243440000 3.5435280000  
C 24.2342550000 9.8621980000 5.6646120000  
C 24.1842410000 8.5250640000 5.3880890000  
C 22.2795400000 12.4337160000 4.7499620000  
C 23.5384780000 7.1671920000 3.3161710000  
H 24.4492070000 12.4710300000 4.9458950000  
H 23.8653240000 12.2004230000 3.2866550000  
H 23.1457150000 9.7662270000 2.4930130000  
H 24.5156460000 10.3859630000 6.5701060000  
H 24.4088010000 7.6666170000 6.0086410000  
H 21.5176070000 11.9415910000 4.1330980000  
H 22.1897440000 13.5175480000 4.6001490000  
H 22.0776220000 12.2129420000 5.8065180000  
H 23.0938780000 7.4596090000 2.3494620000  
H 24.4889690000 6.6438220000 3.1598170000  
H 22.8457650000 6.5254790000 3.8735980000  
Cl 22.1747010000 9.3451930000 0.8805630000  
N 6.0218740000 17.0605150000 4.1581440000  
N 4.1392460000 16.9962820000 3.0836520000  
C 6.9752610000 17.0139440000 5.2778940000  
C 4.6840370000 17.0364760000 4.3123490000  
C 6.3313920000 17.0375910000 2.8055360000  
C 5.1443760000 17.0014070000 2.1298310000  
C 7.3550890000 15.5867190000 5.6546090000  
C 2.6915080000 16.9343480000 2.8596370000  
H 7.8568310000 17.5968490000 4.9801690000  
H 6.4933790000 17.5231610000 6.1215670000  
H 4.0450230000 16.9454560000 5.2585340000  
H 7.3510780000 17.0623910000 2.4407690000  
H 4.9367870000 16.9836460000 1.0672710000  
H 6.4677180000 15.0193950000 5.9611480000  
H 8.0558170000 15.6038940000 6.4995260000  
H 7.8370230000 15.0661400000 4.8164200000  
H 2.2173760000 16.8159690000 3.8490250000  
H 2.3514370000 17.8586830000 2.3782300000  
H 2.4585590000 16.0732670000 2.2219490000  
Cl 2.5369860000 16.4809450000 6.3676720000  
N 7.1728450000 21.1038010000 2.0079170000  
N 9.3307950000 20.9119120000 2.1047300000  
C 5.7622560000 20.7423170000 1.7969050000  
C 8.2071140000 20.3029320000 1.6868890000  
C 7.6500330000 22.2437550000 2.6393230000  
C 9.0098930000 22.1234150000 2.6958050000  
C 5.1671300000 20.0124690000 2.9953630000  
C 10.6613060000 20.3161980000 1.9471550000  
H 5.2162030000 21.6704850000 1.5826310000  
H 5.7312500000 20.1089270000 0.9018340000  
H 8.2214730000 19.2433980000 1.2520640000  
H 6.9968250000 23.0387390000 2.9780680000  
H 9.7619560000 22.7910410000 3.0972000000  
H 5.7140180000 19.0819350000 3.1909880000  
H 4.1210090000 19.7539210000 2.7856450000  
H 5.1945310000 20.6367190000 3.8983500000  
H 10.5127580000 19.2959560000 1.5537810000  
H 11.2548950000 20.9157310000 1.2471510000  
H 11.1604860000 20.2776070000 2.9227080000  
Cl 8.8554090000 17.4557290000 0.9020650000  
N 2.3103970000 3.9995270000 4.6119300000  
N 1.7022990000 6.0811200000 4.6004810000  
C 3.0028620000 2.7608560000 4.2231580000  
C 2.3684420000 5.1436930000 3.9036370000  
C 1.5915060000 4.2149110000 5.7792700000  
C 1.2054850000 5.5255470000 5.7686420000  
C 4.4122980000 2.6818210000 4.7979590000  
C 1.5785690000 7.4693730000 4.1450590000  
H 2.3842460000 1.9204050000 4.5645380000  
H 3.0292820000 2.7471590000 3.1266130000  
H 2.9454450000 5.3993300000 2.9478090000  
H 1.4049870000 3.4296990000 6.5018220000  
H 0.6245960000 6.0965500000 6.4820610000  
H 5.0226260000 3.5199750000 4.4398420000  
H 4.8906190000 1.7493400000 4.4710220000  
H 4.3983700000 2.6966480000 5.8958710000  
H 2.2080880000 7.5700780000 3.2443550000  
H 0.5309660000 7.6895750000 3.9087670000  
H 1.9336490000 8.1438600000 4.9333220000  
Cl 3.8926580000 6.4746450000 1.6568330000  

