&CONTROL
    calculation = 'relax'
    restart_mode='restart',
    prefix='ns',
    nstep=200,
    pseudo_dir = '/home/elmer.barquero/carbon_nn/pseudo',
    outdir= '.',
    max_seconds=84000
/
&SYSTEM
   ntyp             = 3
   nat              = 197
   ibrav            = 0
   occupations='smearing', smearing='mp', degauss=0.02,
   vdw_corr='dft-d3'

/
&ELECTRONS
   diagonalization  = 'cg'
   mixing_mode      = 'plain'
   mixing_beta      = 0.1
   mixing_ndim      = 8
   conv_thr         = 1.0D-4
   electron_maxstep = 300
/
&IONS
/
&CELL
/

ATOMIC_SPECIES
C 12.011 C.pbe-n-kjpaw_psl.1.0.0.UPF
Al 26.9815385 Al.pbe-n-kjpaw_psl.1.0.0.UPF
Cl 35.45 Cl.pbe-n-kjpaw_psl.1.0.0.UPF

K_POINTS automatic
1 1 1 0 0 0

CELL_PARAMETERS angstrom
50.00000000000000 0.00000000000000 0.00000000000000
0.00000000000000 50.00000000000000 0.00000000000000
0.00000000000000 0.00000000000000 17.50000000

ATOMIC_POSITIONS (angstrom)
C               30.8343009620       21.9234740400        0.9375966792
C               30.0194717872       25.6613330303        7.1542969726
C               27.2324084417       28.8769231601        0.0179695737    0   0   0
C               23.1842920721       30.0662509373        0.0171169542    0   0   0
C               19.1661798195       28.8015785909        0.0139660156    0   0   0
C               16.9078558270       25.2726117551        0.0131251452    0   0   0
C               17.5109722178       21.1124548595        0.0121721040    0   0   0
C               20.3619411575       17.9823600709        0.0118061334    0   0   0
C               24.3091265243       16.4190661989        0.0108451698    0   0   0
C               28.5500075909       16.6238126688        0.0093827525    0   0   0
C               32.2478668190       18.6804381467        0.0086398353    0   0   0
C               34.2723701106       22.3703930714        0.0069866670    0   0   0
C               33.9954114585       26.5929906427        0.0065072083    0   0   0
C               32.5577418032       30.6105005714        0.0053494007    0   0   0
C               30.9410803883       34.5580950653        0.0088053561    0   0   0
C               28.8472407963       38.7679219224        7.0810474016
C               30.7311720896       22.9453981510        0.1998662222    0   0   0
C               29.3875859692       26.7370888287        7.2170386280
C               25.9628771329       29.5200672808        0.0179423026    0   0   0
C               21.7646280812       29.9321529434        0.0156112086    0   0   0
C               18.1315169709       27.8219232482        0.0137042636    0   0   0
C               16.7912570834       23.8528728864        0.0124334577    0   0   0
C               18.2747815938       19.9096888172        0.0121896666    0   0   0
C               21.5985924225       17.2753149142        0.0114852923    0   0   0
C               25.7275810495       16.2853839619        0.0102933055    0   0   0
C               29.8912357576       17.1031404051        0.0089989290    0   0   0
C               33.1709849467       19.7642198148        0.0083183218    0   0   0
C               34.4102476460       23.7862434732        0.0065638659    0   0   0
C               33.5721785028       27.9511568862        0.0060836325    0   0   0
C               32.0253120384       31.9302958858        0.0051827615    0   0   0
C               30.3486144465       35.8529941478        0.0114293296    0   0   0
C               28.1808504531       39.8383447515        7.0158912169
C               30.7258888091       24.2023255865        0.9804123892
C               29.0307902626       27.5076046715        1.2473743016
C               25.3215087672       29.8412547556        1.1963655185
C               21.0420874907       29.8191650283        1.1896648862
C               17.6365872554       27.2766024839        1.1851415002
C               16.7854022825       23.1173958738        1.1846506690
C               18.6737961081       19.2910102576        1.1820323512
C               22.2254666674       16.8930424439        1.1823474058
C               26.4564938171       16.2059772737        1.1833417131
C               30.5808511934       17.3588656606        1.1814315104
C               33.6819177350       20.3129192906        1.1675356397
C               34.5077810581       24.5044997860        1.1769763960
C               33.3744616538       28.6398919428        1.1934423036
C               31.7755747600       32.6220916716        1.1908545610
C               29.9772383021       36.6253082281        1.0991787741
C               28.1611327792       39.7994083574        0.8190263955
C               30.3831264653       25.5449965158        1.1383151142
C               27.9310760099       28.3636242853        1.1010864872
C               23.9289161438       30.1101329383        1.1892112141
C               19.7393718659       29.2622720435        1.1867706232
C               17.0246355645       25.9980460446        1.1858223137
C               17.1431196859       21.7466223809        1.1848711464
C               19.7112361117       18.3276254582        1.1816046116
C               23.5756568455       16.4685342100        1.1821921094
C               27.8616484906       16.3785245861        1.1839671322
C               31.7607999146       18.1411138976        1.1819495039
C               34.2383861235       21.6177485388        1.1630434358
C               34.2857075256       25.9017313553        1.1744261377
C               32.8519374583       29.9519937730        1.1930719064
C               31.2481863943       33.9280893921        1.1979632048
C               29.3173068345       37.8650375202        1.1536327189
C               28.7180720195       38.8410458534        0.2487924098
C               31.1350422894       22.1764864481        2.3353906003
C               30.4381073525       26.1454349382        2.4221146560
C               27.3205983843       28.9016473545        2.3967952815
C               23.1837124353       30.1409317088        2.4232647877
C               19.1085138798       28.8586460601        2.4199881358
C               16.8304459705       25.2752942778        2.4194187008
C               17.4249358287       21.0518455500        2.4165768576
C               20.2861526192       17.8494338118        2.4130870316
C               24.2960079609       16.2780898414        2.4149942414
C               28.5937023231       16.5225340682        2.4170576427
C               32.3601394365       18.6053903233        2.4071998618
C               34.4794915074       22.3265700681        2.3938018986
C               34.1520145444       26.6156597794        2.4160582295
C               32.5915618291       30.6438881583        2.4330854310
C               30.9525828011       34.6538987973        2.4053227464
C               29.0371365137       38.4426167996        2.4237938624
C               31.1947589174       23.6369204697        2.2523115078
C               29.5829375350       27.2518520315        2.4855317739
C               26.0508119149       29.5639493040        2.4080545953
C               21.7691121432       30.0061743835        2.4224289187
C               18.0758809311       27.8830731446        2.4187436097
C               16.7123544479       23.8592284678        2.4191207575
C               18.1725038971       19.8429892711        2.4153097485
C               21.5201123598       17.1439885843        2.4134389346
C               25.7115617824       16.1524891639        2.4158674687
C               29.9298991557       17.0061666240        2.4161656971
C               33.3123384106       19.6634614244        2.3994540400
C               34.6128070704       23.7440859192        2.3987082303
C               33.6905261209       27.9573024774        2.4245867543
C               32.0561379393       31.9556625244        2.4324751854
C               30.3597701396       35.9518236626        2.3793706372
C               28.2786152904       39.7048577787        2.2713256322
C               31.2834256907       24.2121795538        3.5009544400
C               29.0820592137       27.7619307432        3.7103023689
C               25.3474364865       29.8107107789        3.6470209155
C               21.0420378213       29.8477828277        3.6499713809
C               17.6248633473       27.2946817148        3.6498951893
C               16.7561606285       23.1169933091        3.6496630387
C               18.6134155723       19.2421926538        3.6442233531
C               22.1785341526       16.7988554266        3.6429006284
C               26.4530237897       16.1230095606        3.6466164149
C               30.6130309153       17.3122068658        3.6434775460
C               33.7507356730       20.2712535761        3.6246173241
C               34.6383268754       24.4752793676        3.6312692412
C               33.4550633083       28.6471564952        3.6605469585
C               31.7787193061       32.6620651005        3.6561233544
C               30.0724934959       36.6010666124        3.6083763970
C               27.9173346403       40.3400915689        3.4331869114
C               30.8191339239       25.5151208711        3.6268750527
C               27.9470652658       28.6008638996        3.6486357708
C               23.9327436192       30.0926907131        3.6484170975
C               19.7187681263       29.2803354028        3.6506205606
C               17.0069366021       25.9943193471        3.6510230579
C               17.1077594804       21.7197105401        3.6484704019
C               19.6592644616       18.2492694484        3.6427070569
C               23.5563142476       16.3718307963        3.6437207424
C               27.8824887472       16.3125194802        3.6474551959
C               31.8201102371       18.1027530322        3.6396105889
C               34.3437984339       21.5884052823        3.6200802823
C               34.3969708467       25.8960489580        3.6382962441
C               32.8970145266       29.9713912996        3.6626683668
C               31.2297696629       33.9917106432        3.6492618273
C               29.4091657904       37.8470193003        3.6199179853
C               27.1689693227       41.4846465805        3.9307054215
C               31.0882241746       21.8863458351        3.6710103667
C               30.3113235016       25.9770731620        4.8654379062
C               27.3346910129       28.9799303068        4.9047013164
C               23.1829013597       30.1669553250        4.8858921175
C               19.0561921910       28.9159101561        4.8857104697
C               16.7608436918       25.2789749319        4.8861487679
C               17.3488756043       20.9991261459        4.8811665403
C               20.2231944708       17.7402146311        4.8747228446
C               24.2822014005       16.1572143777        4.8771583764
C               28.6307782617       16.4362793284        4.8803277536
C               32.4365697864       18.5520602917        4.8686017158
C               34.5981607139       22.2995347298        4.8525890836
C               34.2482242599       26.6222155313        4.8790242812
C               32.6203783327       30.6754414589        4.8965335513
C               30.9350850084       34.6934142960        4.8857832032
C               29.0448875808       38.5053614174        4.8201098705
C               31.1623373240       23.0846021315        4.4939520741
C               29.5116552185       27.1517128967        4.9326250253
C               26.0554150904       29.6027384812        4.8849654894
C               21.7681197275       30.0670907966        4.8831781813
C               18.0250327070       27.9388626749        4.8841128573
C               16.6382738975       23.8633937228        4.8851178978
C               18.0850215862       19.7832762099        4.8787213294
C               21.4550924747       17.0309001255        4.8748719393
C               25.6986764890       16.0393874154        4.8789787535
C               29.9648869501       16.9276451459        4.8790488940
C               33.3839444586       19.6119323617        4.8613927666
C               34.7381004526       23.7129870518        4.8573480523
C               33.7702654291       27.9555539303        4.8907703760
C               32.0724289993       31.9799084089        4.8962771294
C               30.3636233900       35.9934331068        4.8883334352
C               28.3448229639       39.7000715588        4.7035779483
C               30.8437902981       23.7312967844        5.6179544642
C               28.8894151359       27.5803750255        6.1995215340
C               25.2451718278       29.8756567838        5.9865429525
C               20.9146563647       29.8822540796        5.9759854145
C               17.5000452027       27.2450118403        5.9800878397
C               16.6876240138       22.9935284968        5.9811161674
C               18.6010525449       19.0802174392        5.9739713955
C               22.2316652821       16.6405800575        5.9719266242
C               26.5663347662       16.0223534033        5.9771675455
C               30.7570698272       17.2910772776        5.9738793930
C               33.8853806557       20.3261714825        5.9545199403
C               34.7246135376       24.5682528562        5.9648345788
C               33.4658064849       28.7480323241        6.0039480636
C               31.7551333640       32.7684778757        6.0092859809
C               30.0459459732       36.6844932578        6.0638016867
C               27.8270855922       40.4570825106        5.8310023994
C               30.4761329602       25.0292110455        5.9809634405
C               27.9122300958       28.5408580567        6.0876923261
C               24.0287660042       30.1242221427        5.9994733035
C               19.7683022200       29.4041503851        5.9893442020
C               16.9677338878       26.1219548746        5.9845805024
C               16.9867408341       21.7884288788        5.9794221302
C               19.4991794898       18.2228205014        5.9712963161
C               23.4189490595       16.2750797251        5.9723917286
C               27.7966958637       16.1908130836        5.9769225543
C               31.7958487714       17.9723900703        5.9691971735
C               34.3963891720       21.4583852580        5.9524775528
C               34.5086358638       25.7898225347        5.9734946443
C               32.9742493729       29.8877888953        5.9956022053
C               31.2751805702       33.9126503815        5.9917017686
C               29.3665481814       37.8979589322        6.1143169500
C               27.0960992821       41.5422776351        5.1795999834
Al              26.8473160892       33.7069909141        4.7276311086
Cl              27.6979806326       33.6994208391        2.7402981924
Cl              27.0573976643       35.6834780629        5.6314390417
Cl              27.9515528704       32.3040403850        5.9528144353
Cl              24.7460498365       33.2619097143        4.6285867880
